XCrySDen XSF file                       
    1.000000000000000     
     4.0000000000000000    0.0000000000000000    0.0000000000000000
     0.0000000000000000    4.0000000000000000    0.0000000000000000
     0.0000000000000000    0.0000000000000000   34.9057354931913508
   Pb   Ti   O 
     9     9    27
Direct
  0.0723764149442624 -0.0001236211092730  0.0025161244200690
  0.0528540524197467  0.0472009033506780  0.1136130153078501
  0.0039876816514270  0.0732418275778654  0.2247657849201249
  0.9549836952492747  0.0547222331931669  0.3358533097508814
  0.9272866941667507  0.0054574501555949  0.4469974628582711
  0.9443934842974947  0.9572869758855875  0.5580845621820208
  0.9911245467434698  0.9294046922957060  0.6692236189970839
  0.0321631737920318  0.9377898585325061  0.7802882365575925
  0.0561342193908163  0.9569525458799959  0.8914099839651788
  0.5357790179545903  0.5205985468525508  0.0579311029053681
  0.5264226620772895  0.5332844617367367  0.1689492647477347
  0.4809938257505171  0.5364775243595551  0.2801743776187716
  0.4675339916426894  0.5275698435170759  0.3911817463325465
  0.4637405268248557  0.4824157253695537  0.5023985536915744
  0.4715344263314813  0.4694103786717239  0.6134117313211271
  0.5135001064133368  0.4653017816968101  0.7246260562252500
  0.5263881391486935  0.4671891125189065  0.8356905558162664
  0.5337752159379575  0.4769558538338508  0.9467258430518678
  0.4723555593185410  0.4965122059388917  0.0021584501821222
  0.4831765288282585  0.9902556265767698  0.0573614192649589
  0.9896330566875210  0.4883486986831959  0.0580418651923346
  0.4832137046971930  0.4799564625981666  0.1132642011457246
  0.4941362468172674  0.9873503566573654  0.1683019072257869
 -0.0045438768606691  0.4806725519734119  0.1690228085985365
  0.5027339411075655  0.4726905821519423  0.2243920084389502
  0.5113634750413653  0.9898997285853633  0.2802786112279981
  0.0099753559548338  0.4832124318828802  0.2796386163280481
  0.5200596864079461  0.4833600799595153  0.3355103766786269
  0.5198044185872582 -0.0039266799922613  0.3912719710694728
  0.0131471731570032  0.4947373858599025  0.3905104113600641
  0.5278384301798401  0.5034294945288003  0.4466228865816345
  0.5172730408121664  0.0109365951953258  0.5018768840749572
  0.0105251422787038  0.5121293990055191  0.5024986602220376
  0.5170437284872050  0.5211121104041320  0.5577407682254398
  0.5054711302820887  0.0147634392361496  0.6127094375406806
  0.0038908868283665  0.5213049321858736  0.6135362471367382
  0.4974618794480533  0.5299895020544855  0.6688482781412985
  0.4892621406356389  0.0138021201667243  0.7245570303306708
  0.9898201025126897  0.5213399037917420  0.7242274679805851
  0.4822255673535836  0.5230081652025601  0.7799906236711310
  0.4818744220202262  0.0086416368676480  0.8357609781180251
  0.9868002729902031  0.5134516794040734  0.8350891633962415
  0.4755710947476213  0.5134047866078950  0.8910270504087439
  0.4787658614549289  0.0037348505880522  0.9466746539621956
  0.9861492124883361  0.5047459105664173  0.9462509788289026
 
  0.00000000E+00  0.00000000E+00  0.00000000E+00
  0.00000000E+00  0.00000000E+00  0.00000000E+00
  0.00000000E+00  0.00000000E+00  0.00000000E+00
  0.00000000E+00  0.00000000E+00  0.00000000E+00
  0.00000000E+00  0.00000000E+00  0.00000000E+00
  0.00000000E+00  0.00000000E+00  0.00000000E+00
  0.00000000E+00  0.00000000E+00  0.00000000E+00
  0.00000000E+00  0.00000000E+00  0.00000000E+00
  0.00000000E+00  0.00000000E+00  0.00000000E+00
  0.00000000E+00  0.00000000E+00  0.00000000E+00
  0.00000000E+00  0.00000000E+00  0.00000000E+00
  0.00000000E+00  0.00000000E+00  0.00000000E+00
  0.00000000E+00  0.00000000E+00  0.00000000E+00
  0.00000000E+00  0.00000000E+00  0.00000000E+00
  0.00000000E+00  0.00000000E+00  0.00000000E+00
  0.00000000E+00  0.00000000E+00  0.00000000E+00
  0.00000000E+00  0.00000000E+00  0.00000000E+00
  0.00000000E+00  0.00000000E+00  0.00000000E+00
  0.00000000E+00  0.00000000E+00  0.00000000E+00
  0.00000000E+00  0.00000000E+00  0.00000000E+00
  0.00000000E+00  0.00000000E+00  0.00000000E+00
  0.00000000E+00  0.00000000E+00  0.00000000E+00
  0.00000000E+00  0.00000000E+00  0.00000000E+00
  0.00000000E+00  0.00000000E+00  0.00000000E+00
  0.00000000E+00  0.00000000E+00  0.00000000E+00
  0.00000000E+00  0.00000000E+00  0.00000000E+00
  0.00000000E+00  0.00000000E+00  0.00000000E+00
  0.00000000E+00  0.00000000E+00  0.00000000E+00
  0.00000000E+00  0.00000000E+00  0.00000000E+00
  0.00000000E+00  0.00000000E+00  0.00000000E+00
  0.00000000E+00  0.00000000E+00  0.00000000E+00
  0.00000000E+00  0.00000000E+00  0.00000000E+00
  0.00000000E+00  0.00000000E+00  0.00000000E+00
  0.00000000E+00  0.00000000E+00  0.00000000E+00
  0.00000000E+00  0.00000000E+00  0.00000000E+00
  0.00000000E+00  0.00000000E+00  0.00000000E+00
  0.00000000E+00  0.00000000E+00  0.00000000E+00
  0.00000000E+00  0.00000000E+00  0.00000000E+00
  0.00000000E+00  0.00000000E+00  0.00000000E+00
  0.00000000E+00  0.00000000E+00  0.00000000E+00
  0.00000000E+00  0.00000000E+00  0.00000000E+00
  0.00000000E+00  0.00000000E+00  0.00000000E+00
  0.00000000E+00  0.00000000E+00  0.00000000E+00
  0.00000000E+00  0.00000000E+00  0.00000000E+00
  0.00000000E+00  0.00000000E+00  0.00000000E+00
