XCrySDen XSF file                       
    1.000000000000000     
     3.9660000000000002    0.0000000000000000    0.0000000000000000
     0.0000000000000000    3.9660000000000002    0.0000000000000000
     0.0000000000000000    0.0000000000000000   58.5899770458885740
   Pb   Ti   O 
    15    15    45
Direct
  0.0680699975423905  0.9901478431891596  0.0028013749107012
  0.0626142716879755  0.0231096186683732  0.0694692248926777
  0.0540468084415332  0.0412031548946750  0.1361442522280838
  0.0372133371287929  0.0588723611284635  0.2028194640142878
  0.0053648922816612  0.0693478470028343  0.2694598354204306
  0.9730337428386927  0.0619869003961052  0.3361352867351319
  0.9528697208207175  0.0492898707027335  0.4028156544071380
  0.9348787547341864  0.0176450655489220  0.4694805724193565
  0.9356774075260353  0.9845534162359513  0.5361345439229208
  0.9425161592302056  0.9653758290172914  0.6028120576111071
  0.9550662868015852  0.9482425062383859  0.6694852982542669
  0.9869345192299682  0.9332040055044685  0.7361436997224521
  0.0203273684929552  0.9370709536668435  0.8028060154514072
  0.0385563126228093  0.9447267825256696  0.8694791280663963
  0.0551102314469276  0.9583297013929860  0.9361494558256663
  0.5370863697711594  0.5032212435770380  0.0357471953641642
  0.5384557335864752  0.5147743874880623  0.1023832707273736
  0.5359952018567883  0.5236227541041837  0.1690137203885793
  0.5236453989207126  0.5324311249828573  0.2357038665233217
  0.4945557542641779  0.5385676907923325  0.3024120625528055
  0.4831156031067857  0.5389856942898135  0.3690361298353199
  0.4735191143182775  0.5322885014973572  0.4356853219494132
  0.4653139345415531  0.5018030518796819  0.5024072868911675
  0.4617909388406464  0.4891517238501120  0.5690652409982426
  0.4621448833336578  0.4804621904103967  0.6356921595273799
  0.4703538299979990  0.4714077939926206  0.7023598547265988
  0.5012818202674670  0.4640122283096458  0.7690819511824710
  0.5131789312262641  0.4618100286084288  0.8357242858416829
  0.5217529336158433  0.4631485335055600  0.9023534047867159
  0.5304174869564015  0.4727026905614497  0.9690292570954750
  0.4767176640401406  0.4838182029481936  0.0017581686885592
  0.4857591710143577  0.9807384434610871  0.0348161747955897
  0.9947850631574742  0.4776702251584826  0.0350730217225873
  0.4876704442532303  0.4741288997254379  0.0684398769208632
  0.4945540127932191  0.9807100975241356  0.1014359156092113
  0.0017002633616653  0.4737179541235707  0.1017106327929747
  0.4963795203760877  0.4725635854271379  0.1350792352110266
  0.5016363879525609  0.9837041960804040  0.1680812905734607
  0.0065096029869376  0.4747608930528203  0.1683435956331779
  0.5053573828737054  0.4733701068372000  0.2017336080045561
  0.5102421141313469  0.9885661112874546  0.2348735536429634
  0.0113203013543054  0.4781875230935774  0.2349341912280675
  0.5172384059591606  0.4787569416815772  0.2684240069870859
  0.5230282139657648  0.9969223226423054  0.3017575666057224
  0.0192825528030461  0.4882149211817693  0.3014524774387535
  0.5264422130593677  0.4904738841336422  0.3350984489014958
  0.5267084589709825  0.0041367190594233  0.3683915612104344
  0.0190570601037975  0.4976237660418905  0.3680665256300568
  0.5282611678187519  0.5008234135239680  0.4017385439109703
  0.5255282334862507  0.0098672374230617  0.4349963554000714
  0.0157277155536362  0.5070101826011488  0.4347602692914685
  0.5265232293128662  0.5148986967864878  0.4684169672512981
  0.5182606080911846  0.0196124803641669  0.5015213443219846
  0.0085733972499361  0.5214863835462960  0.5016919949223614
  0.5160641364682449  0.5255819695188184  0.5351064195014824
  0.5080949489919149  0.0208703528918198  0.5681124857920165
  0.0003584974367766  0.5270540200287248  0.5683937921114648
  0.5061164599357691  0.5284726505584166  0.6017550377319393
  0.5002242491577689  0.0186239972864480  0.6347564518923358
  0.9944525022975701  0.5270081821414304  0.6350225929653465
  0.4971082824502122  0.5281231942811819  0.6684030815533670
  0.4916343252323421  0.0143759153153346  0.7014751947792122
  0.9894847388017990  0.5244361124841940  0.7016370678068714
  0.4840404585910869  0.5248170986942516  0.7350912416825602
  0.4776666832946244  0.0066580435618666  0.7683966114878802
  0.9803045614647916  0.5159081002280455  0.7681656110588215
  0.4739120804210087  0.5138367470412017  0.8017769713492227
  0.4731863926019053  0.9992197891760846  0.8350502178990592
  0.9799068055953246  0.5065726477871935  0.8347772923633104
  0.4719660668154476  0.5047529800739670  0.8684185371651816
  0.4740095219276005  0.9940900142329061  0.9016771457954063
  0.9826649539237079  0.4994583778771687  0.9014263655697722
  0.4727586487521489  0.4962672941142667  0.9350675381843470
  0.4768478563789542  0.9894489876677900  0.9682877239582314
  0.9870468993605951  0.4911648433712209  0.9681669235683162
 
  0.00000000E+00  0.00000000E+00  0.00000000E+00
  0.00000000E+00  0.00000000E+00  0.00000000E+00
  0.00000000E+00  0.00000000E+00  0.00000000E+00
  0.00000000E+00  0.00000000E+00  0.00000000E+00
  0.00000000E+00  0.00000000E+00  0.00000000E+00
  0.00000000E+00  0.00000000E+00  0.00000000E+00
  0.00000000E+00  0.00000000E+00  0.00000000E+00
  0.00000000E+00  0.00000000E+00  0.00000000E+00
  0.00000000E+00  0.00000000E+00  0.00000000E+00
  0.00000000E+00  0.00000000E+00  0.00000000E+00
  0.00000000E+00  0.00000000E+00  0.00000000E+00
  0.00000000E+00  0.00000000E+00  0.00000000E+00
  0.00000000E+00  0.00000000E+00  0.00000000E+00
  0.00000000E+00  0.00000000E+00  0.00000000E+00
  0.00000000E+00  0.00000000E+00  0.00000000E+00
  0.00000000E+00  0.00000000E+00  0.00000000E+00
  0.00000000E+00  0.00000000E+00  0.00000000E+00
  0.00000000E+00  0.00000000E+00  0.00000000E+00
  0.00000000E+00  0.00000000E+00  0.00000000E+00
  0.00000000E+00  0.00000000E+00  0.00000000E+00
  0.00000000E+00  0.00000000E+00  0.00000000E+00
  0.00000000E+00  0.00000000E+00  0.00000000E+00
  0.00000000E+00  0.00000000E+00  0.00000000E+00
  0.00000000E+00  0.00000000E+00  0.00000000E+00
  0.00000000E+00  0.00000000E+00  0.00000000E+00
  0.00000000E+00  0.00000000E+00  0.00000000E+00
  0.00000000E+00  0.00000000E+00  0.00000000E+00
  0.00000000E+00  0.00000000E+00  0.00000000E+00
  0.00000000E+00  0.00000000E+00  0.00000000E+00
  0.00000000E+00  0.00000000E+00  0.00000000E+00
  0.00000000E+00  0.00000000E+00  0.00000000E+00
  0.00000000E+00  0.00000000E+00  0.00000000E+00
  0.00000000E+00  0.00000000E+00  0.00000000E+00
  0.00000000E+00  0.00000000E+00  0.00000000E+00
  0.00000000E+00  0.00000000E+00  0.00000000E+00
  0.00000000E+00  0.00000000E+00  0.00000000E+00
  0.00000000E+00  0.00000000E+00  0.00000000E+00
  0.00000000E+00  0.00000000E+00  0.00000000E+00
  0.00000000E+00  0.00000000E+00  0.00000000E+00
  0.00000000E+00  0.00000000E+00  0.00000000E+00
  0.00000000E+00  0.00000000E+00  0.00000000E+00
  0.00000000E+00  0.00000000E+00  0.00000000E+00
  0.00000000E+00  0.00000000E+00  0.00000000E+00
  0.00000000E+00  0.00000000E+00  0.00000000E+00
  0.00000000E+00  0.00000000E+00  0.00000000E+00
  0.00000000E+00  0.00000000E+00  0.00000000E+00
  0.00000000E+00  0.00000000E+00  0.00000000E+00
  0.00000000E+00  0.00000000E+00  0.00000000E+00
  0.00000000E+00  0.00000000E+00  0.00000000E+00
  0.00000000E+00  0.00000000E+00  0.00000000E+00
  0.00000000E+00  0.00000000E+00  0.00000000E+00
  0.00000000E+00  0.00000000E+00  0.00000000E+00
  0.00000000E+00  0.00000000E+00  0.00000000E+00
  0.00000000E+00  0.00000000E+00  0.00000000E+00
  0.00000000E+00  0.00000000E+00  0.00000000E+00
  0.00000000E+00  0.00000000E+00  0.00000000E+00
  0.00000000E+00  0.00000000E+00  0.00000000E+00
  0.00000000E+00  0.00000000E+00  0.00000000E+00
  0.00000000E+00  0.00000000E+00  0.00000000E+00
  0.00000000E+00  0.00000000E+00  0.00000000E+00
  0.00000000E+00  0.00000000E+00  0.00000000E+00
  0.00000000E+00  0.00000000E+00  0.00000000E+00
  0.00000000E+00  0.00000000E+00  0.00000000E+00
  0.00000000E+00  0.00000000E+00  0.00000000E+00
  0.00000000E+00  0.00000000E+00  0.00000000E+00
  0.00000000E+00  0.00000000E+00  0.00000000E+00
  0.00000000E+00  0.00000000E+00  0.00000000E+00
  0.00000000E+00  0.00000000E+00  0.00000000E+00
  0.00000000E+00  0.00000000E+00  0.00000000E+00
  0.00000000E+00  0.00000000E+00  0.00000000E+00
  0.00000000E+00  0.00000000E+00  0.00000000E+00
  0.00000000E+00  0.00000000E+00  0.00000000E+00
  0.00000000E+00  0.00000000E+00  0.00000000E+00
  0.00000000E+00  0.00000000E+00  0.00000000E+00
  0.00000000E+00  0.00000000E+00  0.00000000E+00
