XCrySDen XSF file                       
    1.000000000000000     
     4.0099999999999998    0.0000000000000000    0.0000000000000000
     0.0000000000000000    4.0099999999999998    0.0000000000000000
     0.0000000000000000    0.0000000000000000   27.1109177791236959
   Pb   Ti   O 
     7     7    21
Direct
  0.0560046800432920  0.0448626961922961  0.0047368409447903
  0.0040615642283104  0.0735664017340478  0.1476022337944577
  0.9532578287325733  0.0532162817076086  0.2904297209774226
  0.9261458018340055  0.0015655462187415  0.4332878833647621
  0.9487859585121092  0.9489029397081863  0.5761316055190862
  0.0045979963567638  0.9255317166839204  0.7189799236223740
  0.0727368858911874  0.9903664092980866  0.8619133480335405
  0.5276566756465894  0.5325590399882576  0.0758932642418565
  0.4797016978192445  0.5351806618730897  0.2188868877577258
  0.4670136155522557  0.5257135700805099  0.3615815423249379
  0.4647180910223085  0.4770799641258538  0.5045739491869292
  0.4754231641860011  0.4645579582735760  0.6472769671041364
  0.5291063485259070  0.4669838008826484  0.7902349636623183
  0.5363267383791677  0.5189594717004229  0.9331880074715327
  0.4816282798487955  0.4797073594651234  0.0043970434505141
  0.4936156463565101  0.9855016837420102  0.0750694951932817
  0.9945339316391014  0.4795950303025214  0.0761650285347146
  0.5024321799882859  0.4695613460618334  0.1472457018195934
  0.5111939735464196  0.9870413863772308  0.2191730286235223
  0.0104373365457260  0.4809388554099348  0.2182565584648816
  0.5207836816829450  0.4809150008914961  0.2900839029367483
  0.5204493454583787  0.9932240490279574  0.3618259911272612
  0.0143929167299978  0.4924855666915841  0.3607887262254449
  0.5301328172933110  0.5010602149723861  0.4329207903238385
  0.5183243651485516  0.0087480823309706  0.5039050410275882
  0.0124120656959374  0.5096619704485865  0.5048981290248032
  0.5178226109400790  0.5194783849521405  0.5757597355497240
  0.5061705572025387  0.0121542426741967  0.6466084070398707
  0.0060889750946314  0.5184846974309729  0.6474029330490345
  0.4964699877022607  0.5268056609054655  0.7185838129202793
  0.4869609131110434  0.0074137205922206  0.7908571398974310
  0.9890616629127297  0.5092860068420120  0.7891568310310032
  0.4716394056943092  0.4995179030597173  0.8615684054013625
  0.4817730691287881  0.9897941266450441  0.9326532601442467
  0.9881392315496405  0.4895782527098829  0.9333515084732532
 
  0.00000000E+00  0.00000000E+00  0.00000000E+00
  0.00000000E+00  0.00000000E+00  0.00000000E+00
  0.00000000E+00  0.00000000E+00  0.00000000E+00
  0.00000000E+00  0.00000000E+00  0.00000000E+00
  0.00000000E+00  0.00000000E+00  0.00000000E+00
  0.00000000E+00  0.00000000E+00  0.00000000E+00
  0.00000000E+00  0.00000000E+00  0.00000000E+00
  0.00000000E+00  0.00000000E+00  0.00000000E+00
  0.00000000E+00  0.00000000E+00  0.00000000E+00
  0.00000000E+00  0.00000000E+00  0.00000000E+00
  0.00000000E+00  0.00000000E+00  0.00000000E+00
  0.00000000E+00  0.00000000E+00  0.00000000E+00
  0.00000000E+00  0.00000000E+00  0.00000000E+00
  0.00000000E+00  0.00000000E+00  0.00000000E+00
  0.00000000E+00  0.00000000E+00  0.00000000E+00
  0.00000000E+00  0.00000000E+00  0.00000000E+00
  0.00000000E+00  0.00000000E+00  0.00000000E+00
  0.00000000E+00  0.00000000E+00  0.00000000E+00
  0.00000000E+00  0.00000000E+00  0.00000000E+00
  0.00000000E+00  0.00000000E+00  0.00000000E+00
  0.00000000E+00  0.00000000E+00  0.00000000E+00
  0.00000000E+00  0.00000000E+00  0.00000000E+00
  0.00000000E+00  0.00000000E+00  0.00000000E+00
  0.00000000E+00  0.00000000E+00  0.00000000E+00
  0.00000000E+00  0.00000000E+00  0.00000000E+00
  0.00000000E+00  0.00000000E+00  0.00000000E+00
  0.00000000E+00  0.00000000E+00  0.00000000E+00
  0.00000000E+00  0.00000000E+00  0.00000000E+00
  0.00000000E+00  0.00000000E+00  0.00000000E+00
  0.00000000E+00  0.00000000E+00  0.00000000E+00
  0.00000000E+00  0.00000000E+00  0.00000000E+00
  0.00000000E+00  0.00000000E+00  0.00000000E+00
  0.00000000E+00  0.00000000E+00  0.00000000E+00
  0.00000000E+00  0.00000000E+00  0.00000000E+00
  0.00000000E+00  0.00000000E+00  0.00000000E+00
