XCrySDen XSF file                       
    1.000000000000000     
     3.9760000000000000    0.0000000000000000    0.0000000000000000
     0.0000000000000000    3.9760000000000000    0.0000000000000000
     0.0000000000000000    0.0000000000000000   19.7293944107392605
   Pb   Ti   O 
     5     5    15
Direct
  0.0417232969771432  0.0037852654652912  0.0164630107509469
  0.0034965141868774  0.0397113656015881  0.2165368556518831
  0.9621633764072366  0.0073238070060840  0.4165305893414229
  0.9832407367098831  0.9644534217851166  0.6164748828678568
  0.0239081390060499  0.9631578777690583  0.8163471393892963
  0.5271119432205867  0.5131119089647995  0.1102011908576593
  0.4905483379685870  0.5270301253691282  0.3102103405317889
  0.4738075102737260  0.4936109178273640  0.5102233863436808
  0.4995581433930334  0.4755330719770994  0.7102276384387588
  0.5195190881142584  0.4768632885504697  0.9102168920808863
  0.4885049297956983  0.4865814386966134  0.0027690872558447
  0.5014684459698981  0.9872645498572205  0.1005484683188199
  0.0023765880164366  0.4838695360364752  0.1010098580012622
  0.5125135083140053  0.4868362042731025  0.2027983162566941
  0.5176142797825852  0.0014244404574001  0.3010116914033120
  0.0147058783140464  0.5001964182955873  0.3005677745398874
  0.5164058272469495  0.5124593907641202  0.4028217038873029
  0.5039494956692467  0.0166769875688108  0.5005705489237439
  0.0018343871352239  0.5190642865866931  0.5010393160211547
  0.4927688589795589  0.5213739287239766  0.6028031365832608
  0.4848787139412699  0.0084063537557165  0.7009385849660054
  0.9856010847683925  0.5121820228464928  0.7007429885682427
  0.4802009141160195  0.5065711254100955  0.8027388464812990
  0.4838159009823784  0.9959491629075528  0.9009362060323841
  0.9882841007109162  0.4965631035041436  0.9006601547708951
 
  0.00000000E+00  0.00000000E+00  0.00000000E+00
  0.00000000E+00  0.00000000E+00  0.00000000E+00
  0.00000000E+00  0.00000000E+00  0.00000000E+00
  0.00000000E+00  0.00000000E+00  0.00000000E+00
  0.00000000E+00  0.00000000E+00  0.00000000E+00
  0.00000000E+00  0.00000000E+00  0.00000000E+00
  0.00000000E+00  0.00000000E+00  0.00000000E+00
  0.00000000E+00  0.00000000E+00  0.00000000E+00
  0.00000000E+00  0.00000000E+00  0.00000000E+00
  0.00000000E+00  0.00000000E+00  0.00000000E+00
  0.00000000E+00  0.00000000E+00  0.00000000E+00
  0.00000000E+00  0.00000000E+00  0.00000000E+00
  0.00000000E+00  0.00000000E+00  0.00000000E+00
  0.00000000E+00  0.00000000E+00  0.00000000E+00
  0.00000000E+00  0.00000000E+00  0.00000000E+00
  0.00000000E+00  0.00000000E+00  0.00000000E+00
  0.00000000E+00  0.00000000E+00  0.00000000E+00
  0.00000000E+00  0.00000000E+00  0.00000000E+00
  0.00000000E+00  0.00000000E+00  0.00000000E+00
  0.00000000E+00  0.00000000E+00  0.00000000E+00
  0.00000000E+00  0.00000000E+00  0.00000000E+00
  0.00000000E+00  0.00000000E+00  0.00000000E+00
  0.00000000E+00  0.00000000E+00  0.00000000E+00
  0.00000000E+00  0.00000000E+00  0.00000000E+00
  0.00000000E+00  0.00000000E+00  0.00000000E+00
