XCrySDen XSF file                       
    1.000000000000000     
     3.9880000000000000    0.0000000000000000    0.0000000000000000
     0.0000000000000000    3.9880000000000000    0.0000000000000000
     0.0000000000000000    0.0000000000000000   23.3328056551998095
   Pb   Ti   O 
     6     6    18
Direct
  0.0687423435503140  0.0046859461657053  0.0066244837063278
  0.0082274268035800  0.0654578263213230  0.1733292472135304
  0.9514324590387208  0.0463212663454479  0.3399864970593531
  0.9312576564496859  0.9953140538342947  0.5066244837063278
  0.9917725731964199  0.9345421736786769  0.6733292472135304
  0.0485675409612793  0.9536787336545520  0.8399864970593531
  0.5312094343227873  0.5245535049205431  0.0890834880987624
  0.4820077722660082  0.5325681584241053  0.2557718061069084
  0.4679881101195610  0.5226706520772804  0.4223165123009782
  0.4687905656772127  0.4754464950794570  0.5890834880987623
  0.5179922277339918  0.4674318415758947  0.7557718061069084
  0.5320118898804389  0.4773293479227197  0.9223165123009781
  0.4751564533670954  0.4946434688576865  0.0046958690148727
  0.4909851793461692  0.9885609700598864  0.0868946950390206
  0.9941622881299675  0.4847928670869385  0.0886036462405257
  0.5018925016992000  0.4726622434966447  0.1714484070909083
  0.5121203517899904  0.9892457616807921  0.2549155073906833
  0.0101604140424767  0.4824412526345170  0.2540243616157296
  0.5210612965629704  0.4846843901716247  0.3380763596543183
  0.5198261498772049  0.9960653079068581  0.4213219068422957
  0.0120900019176546  0.4945790121815331  0.4206015167579230
  0.5248435466329047  0.5053565311423135  0.5046958690148727
  0.5090148206538307  0.0114390299401137  0.5868946950390206
  0.0058377118700325  0.5152071329130615  0.5886036462405256
  0.4981074983008000  0.5273377565033552  0.6714484070909083
  0.4878796482100096  0.0107542383192078  0.7549155073906831
  0.9898395859575234  0.5175587473654829  0.7540243616157297
  0.4789387034370295  0.5153156098283753  0.8380763596543183
  0.4801738501227950  0.0039346920931418  0.9213219068422955
  0.9879099980823454  0.5054209878184669  0.9206015167579229
 
  0.00000000E+00  0.00000000E+00  0.00000000E+00
  0.00000000E+00  0.00000000E+00  0.00000000E+00
  0.00000000E+00  0.00000000E+00  0.00000000E+00
  0.00000000E+00  0.00000000E+00  0.00000000E+00
  0.00000000E+00  0.00000000E+00  0.00000000E+00
  0.00000000E+00  0.00000000E+00  0.00000000E+00
  0.00000000E+00  0.00000000E+00  0.00000000E+00
  0.00000000E+00  0.00000000E+00  0.00000000E+00
  0.00000000E+00  0.00000000E+00  0.00000000E+00
  0.00000000E+00  0.00000000E+00  0.00000000E+00
  0.00000000E+00  0.00000000E+00  0.00000000E+00
  0.00000000E+00  0.00000000E+00  0.00000000E+00
  0.00000000E+00  0.00000000E+00  0.00000000E+00
  0.00000000E+00  0.00000000E+00  0.00000000E+00
  0.00000000E+00  0.00000000E+00  0.00000000E+00
  0.00000000E+00  0.00000000E+00  0.00000000E+00
  0.00000000E+00  0.00000000E+00  0.00000000E+00
  0.00000000E+00  0.00000000E+00  0.00000000E+00
  0.00000000E+00  0.00000000E+00  0.00000000E+00
  0.00000000E+00  0.00000000E+00  0.00000000E+00
  0.00000000E+00  0.00000000E+00  0.00000000E+00
  0.00000000E+00  0.00000000E+00  0.00000000E+00
  0.00000000E+00  0.00000000E+00  0.00000000E+00
  0.00000000E+00  0.00000000E+00  0.00000000E+00
  0.00000000E+00  0.00000000E+00  0.00000000E+00
  0.00000000E+00  0.00000000E+00  0.00000000E+00
  0.00000000E+00  0.00000000E+00  0.00000000E+00
  0.00000000E+00  0.00000000E+00  0.00000000E+00
  0.00000000E+00  0.00000000E+00  0.00000000E+00
  0.00000000E+00  0.00000000E+00  0.00000000E+00
