# General
ISTART = 0
ICHARG = 2
LWAVE = .FALSE.
LCHARG = .FALSE.
PREC = Accurate
GGA = PS
NPAR = 8
ALGO = Fast

# Ionic relaxation
ISIF = 3
IBRION = 2
POTIM = 0.05
NSW = 1000
EDIFFG = -1E-2

# Electronic optimization
ENCUT = 600
NELM = 120
NELMIN = 4
EDIFF = 1E-5
ISMEAR = 0
SIGMA = 0.05

# K-points mesh
#KSPACING = 0.30
#KGAMMA = .TRUE.
