XCrySDen XSF file                       
    1.000000000000000     
     3.9480000000000000    0.0000000000000000    0.0000000000000000
     0.0000000000000000    3.9480000000000000    0.0000000000000000
     0.0000000000000000    0.0000000000000000   20.1256878575121618
   Pb   Ti   O 
     5     5    15
Direct
  0.0085144217469645 -0.0025002395928676  0.0199742774847876
  0.0048441859413714  0.0067870759765284  0.2199596403103125
  0.9941395989964774  0.0072413809181387  0.4199460196268170
 -0.0088831156358270  0.9971906867450218  0.6199650779980662
  0.0006582292855469  0.9911257391394269  0.8199714539567999
  0.5069716891100577  0.5001364654520061  0.1120421134637579
  0.5015882287344107  0.5061256572174418  0.3120251615791207
  0.4942640733159991  0.5039473440615442  0.5120333457769614
  0.4940920295897397  0.4960323385010392  0.7120548236745742
  0.5029710927428035  0.4933663111016404  0.9120470566149481
  0.4970038374643513  0.4959119732649012  0.0010072805033140
  0.4998054720373559  0.9956023954021241  0.0990480562126683
  0.0006253771343113  0.4946754738302795  0.0990243038869117
  0.5033210905443332  0.4961356037057052  0.2010085580006930
  0.5051053450177063 -0.0011061193978358  0.2990134637268786
  0.0044871869295285  0.4977913023025464  0.2990309992883617
  0.5048774630366507  0.5011722816377880  0.4009970515957405
  0.5036972606286612  0.0036447700413499  0.4990172918987401
  0.0023852260306742  0.5038967591082859  0.4990147567284301
  0.5000864449027110  0.5051885761494044  0.6010034155490834
  0.4970368053443580  0.0034946175940936  0.6990138444960089
  0.9969723307070122  0.5047397873578292  0.6990793981398609
  0.4949855395850132  0.5017699594859982  0.8010202353089455
  0.4945953501797137 -0.0014891451097937  0.8990970771204516
  0.9958548366300811  0.4991190051074019  0.8989939053220549
 
  0.00000000E+00  0.00000000E+00  0.00000000E+00
  0.00000000E+00  0.00000000E+00  0.00000000E+00
  0.00000000E+00  0.00000000E+00  0.00000000E+00
  0.00000000E+00  0.00000000E+00  0.00000000E+00
  0.00000000E+00  0.00000000E+00  0.00000000E+00
  0.00000000E+00  0.00000000E+00  0.00000000E+00
  0.00000000E+00  0.00000000E+00  0.00000000E+00
  0.00000000E+00  0.00000000E+00  0.00000000E+00
  0.00000000E+00  0.00000000E+00  0.00000000E+00
  0.00000000E+00  0.00000000E+00  0.00000000E+00
  0.00000000E+00  0.00000000E+00  0.00000000E+00
  0.00000000E+00  0.00000000E+00  0.00000000E+00
  0.00000000E+00  0.00000000E+00  0.00000000E+00
  0.00000000E+00  0.00000000E+00  0.00000000E+00
  0.00000000E+00  0.00000000E+00  0.00000000E+00
  0.00000000E+00  0.00000000E+00  0.00000000E+00
  0.00000000E+00  0.00000000E+00  0.00000000E+00
  0.00000000E+00  0.00000000E+00  0.00000000E+00
  0.00000000E+00  0.00000000E+00  0.00000000E+00
  0.00000000E+00  0.00000000E+00  0.00000000E+00
  0.00000000E+00  0.00000000E+00  0.00000000E+00
  0.00000000E+00  0.00000000E+00  0.00000000E+00
  0.00000000E+00  0.00000000E+00  0.00000000E+00
  0.00000000E+00  0.00000000E+00  0.00000000E+00
  0.00000000E+00  0.00000000E+00  0.00000000E+00
