XCrySDen XSF file                       
    1.000000000000000     
     3.9600000000000000    0.0000000000000000    0.0000000000000000
     0.0000000000000000    3.9600000000000000    0.0000000000000000
     0.0000000000000000    0.0000000000000000   23.9111150586177210
   Pb   Ti   O 
     6     6    18
Direct
  0.0284062433178708 -0.0079843423750527  0.0151769061163233
  0.0161398910224155  0.0230916619127493  0.1818362798918332
  0.9902582391772408  0.0311592863575188  0.3484547324221656
  0.9715937566821293  0.0079843423750524  0.5151769061163236
  0.9838601089775845  0.9769083380872506  0.6818362798918326
  0.0097417608227592  0.9688407136424813  0.8484547324221657
  0.5209701161135515  0.5004703901336137  0.0926549808445215
  0.5070748974409138  0.5184817451655309  0.2593185256177774
  0.4899092663168962  0.5221424369480637  0.4260141126642507
  0.4790298838864490  0.4995296098663860  0.5926549808445207
  0.4929251025590857  0.4815182548344693  0.7593185256177782
  0.5100907336831040  0.4778575630519363  0.9260141126642504
  0.4906941164637577  0.4849476755087950  0.0015917664336517
  0.4984998223990973  0.9840193935484148  0.0831456809590076
  0.0009538289368996  0.4814046590876641  0.0833427868925431
  0.5081616723773905  0.4838754876925402  0.1682471028957236
  0.5136957086942722  0.9938598148688756  0.2499022038557238
  0.0128906340921201  0.4901652701320271  0.2498899191814106
  0.5162855437543958  0.4978036010817206  0.3349022096982091
  0.5152049916955099  0.0073219590019828  0.4166949155582950
  0.0115400160926021  0.5058305888630257  0.4165221811007008
  0.5093058835362421  0.5150523244912049  0.5015917664336519
  0.5015001776009026  0.0159806064515853  0.5831456809590077
 -0.0009538289368997  0.5185953409123362  0.5833427868925427
  0.4918383276226098  0.5161245123074598  0.6682471028957236
  0.4863042913057282  0.0061401851311242  0.7499022038557238
  0.9871093659078791  0.5098347298679728  0.7498899191814105
  0.4837144562456042  0.5021963989182792  0.8349022096982096
  0.4847950083044898 -0.0073219590019822  0.9166949155582953
  0.9884599839073970  0.4941694111369746  0.9165221811007006
 
  0.00000000E+00  0.00000000E+00  0.00000000E+00
  0.00000000E+00  0.00000000E+00  0.00000000E+00
  0.00000000E+00  0.00000000E+00  0.00000000E+00
  0.00000000E+00  0.00000000E+00  0.00000000E+00
  0.00000000E+00  0.00000000E+00  0.00000000E+00
  0.00000000E+00  0.00000000E+00  0.00000000E+00
  0.00000000E+00  0.00000000E+00  0.00000000E+00
  0.00000000E+00  0.00000000E+00  0.00000000E+00
  0.00000000E+00  0.00000000E+00  0.00000000E+00
  0.00000000E+00  0.00000000E+00  0.00000000E+00
  0.00000000E+00  0.00000000E+00  0.00000000E+00
  0.00000000E+00  0.00000000E+00  0.00000000E+00
  0.00000000E+00  0.00000000E+00  0.00000000E+00
  0.00000000E+00  0.00000000E+00  0.00000000E+00
  0.00000000E+00  0.00000000E+00  0.00000000E+00
  0.00000000E+00  0.00000000E+00  0.00000000E+00
  0.00000000E+00  0.00000000E+00  0.00000000E+00
  0.00000000E+00  0.00000000E+00  0.00000000E+00
  0.00000000E+00  0.00000000E+00  0.00000000E+00
  0.00000000E+00  0.00000000E+00  0.00000000E+00
  0.00000000E+00  0.00000000E+00  0.00000000E+00
  0.00000000E+00  0.00000000E+00  0.00000000E+00
  0.00000000E+00  0.00000000E+00  0.00000000E+00
  0.00000000E+00  0.00000000E+00  0.00000000E+00
  0.00000000E+00  0.00000000E+00  0.00000000E+00
  0.00000000E+00  0.00000000E+00  0.00000000E+00
  0.00000000E+00  0.00000000E+00  0.00000000E+00
  0.00000000E+00  0.00000000E+00  0.00000000E+00
  0.00000000E+00  0.00000000E+00  0.00000000E+00
  0.00000000E+00  0.00000000E+00  0.00000000E+00
