XCrySDen XSF file                       
    1.000000000000000     
     3.9500000000000002    0.0000000000000000    0.0000000000000000
     0.0000000000000000    3.9500000000000002    0.0000000000000000
     0.0000000000000000    0.0000000000000000   36.1253554691117529
   Pb   Ti   O 
     9     9    27
Direct
  0.0139879544090630  0.9958371701967116  0.0096682377629365
  0.0133348840350434  0.0058967644822382  0.1207834713457693
  0.0064747410047909  0.0131011221300668  0.2318981988492077
  0.9965310994728861  0.0141072458507441  0.3430030557250824
  0.9882745214640869  0.0085536479359741  0.4541174274747258
  0.9855079471233582 -0.0008762418517122  0.5652286707109103
  0.9894925447029198  0.9899684917804563  0.6763357280917079
  0.9982951062463012  0.9855538198006488  0.7874511299437977
  0.0080809820470319  0.9878976245828565  0.8985640386549474
  0.5125692677528512  0.4981960272600124  0.0609259849928476
  0.5108169541128409  0.5066016966514107  0.1720437827107067
  0.5038366491491347  0.5119940491200697  0.2831558247104246
  0.4953841655598050  0.5118034008456898  0.3942606937852290
  0.4889014851471242  0.5058513285216675  0.5053757377111860
  0.4875430481253859  0.4974739912150251  0.6164847746745202
  0.4922212381254878  0.4902072255615481  0.7275943300960309
  0.5003218565555776  0.4872919239731683  0.8387099358840374
  0.5082906836977693  0.4905425151656356  0.9498211474897028
  0.4988601302564606  0.4892428044010463  0.9994622766568712
  0.5021044543915808  0.9903424393365194  0.0539001875807600
  0.0032696057854797  0.4891174775550887  0.0539133003660329
  0.5060410726051412  0.4909901309270128  0.1105736361223993
  0.5084754545419075  0.9947585511750370  0.1650220140921762
  0.0086136429360951  0.4930036023904940  0.1650285026352552
  0.5104242898386930  0.4970366807619027  0.2216892985754539
  0.5110675935613446  0.0016172301845557  0.2761418274834214
  0.0100813597045205  0.5002548498036642  0.2761315710734730
  0.5099062980868935  0.5044273198949737  0.3327961566328949
  0.5083510068837811  0.0075883031784040  0.3872458608226086
  0.0066622139918063  0.5071877771097335  0.3872364387362119
  0.5047288669728397  0.5097382378025276  0.4439065440804714
  0.5017045341997184  0.0101514528230092  0.4983540339029250
  0.0001640741391903  0.5108732386886665  0.4983625029224760
  0.4973802124055056  0.5104663052505538  0.5550213146848074
  0.4943982223928001  0.0078802433250470  0.6094611757431755
  0.9937167757770315  0.5094576027214527  0.6094727076623359
  0.4912764207950676  0.5063337273809185  0.6661291844731082
  0.4896588003591498  0.0019183563622080  0.7205759739308211
  0.9900878073118601  0.5035808308738067  0.7205729029736490
  0.4892243838041864  0.4992379794232384  0.7772400722499344
  0.4896760962787761  0.9951402856353453  0.8316983484905767
  0.9910895657686669  0.4960710706549704  0.8316857466112902
  0.4921907558688413  0.4925105989886795  0.8883554288674143
  0.4946217861692731  0.9906070918685093  0.9428032231364704
  0.9963595034423600  0.4904640592595784  0.9428026848807087
 
  0.00000000E+00  0.00000000E+00  0.00000000E+00
  0.00000000E+00  0.00000000E+00  0.00000000E+00
  0.00000000E+00  0.00000000E+00  0.00000000E+00
  0.00000000E+00  0.00000000E+00  0.00000000E+00
  0.00000000E+00  0.00000000E+00  0.00000000E+00
  0.00000000E+00  0.00000000E+00  0.00000000E+00
  0.00000000E+00  0.00000000E+00  0.00000000E+00
  0.00000000E+00  0.00000000E+00  0.00000000E+00
  0.00000000E+00  0.00000000E+00  0.00000000E+00
  0.00000000E+00  0.00000000E+00  0.00000000E+00
  0.00000000E+00  0.00000000E+00  0.00000000E+00
  0.00000000E+00  0.00000000E+00  0.00000000E+00
  0.00000000E+00  0.00000000E+00  0.00000000E+00
  0.00000000E+00  0.00000000E+00  0.00000000E+00
  0.00000000E+00  0.00000000E+00  0.00000000E+00
  0.00000000E+00  0.00000000E+00  0.00000000E+00
  0.00000000E+00  0.00000000E+00  0.00000000E+00
  0.00000000E+00  0.00000000E+00  0.00000000E+00
  0.00000000E+00  0.00000000E+00  0.00000000E+00
  0.00000000E+00  0.00000000E+00  0.00000000E+00
  0.00000000E+00  0.00000000E+00  0.00000000E+00
  0.00000000E+00  0.00000000E+00  0.00000000E+00
  0.00000000E+00  0.00000000E+00  0.00000000E+00
  0.00000000E+00  0.00000000E+00  0.00000000E+00
  0.00000000E+00  0.00000000E+00  0.00000000E+00
  0.00000000E+00  0.00000000E+00  0.00000000E+00
  0.00000000E+00  0.00000000E+00  0.00000000E+00
  0.00000000E+00  0.00000000E+00  0.00000000E+00
  0.00000000E+00  0.00000000E+00  0.00000000E+00
  0.00000000E+00  0.00000000E+00  0.00000000E+00
  0.00000000E+00  0.00000000E+00  0.00000000E+00
  0.00000000E+00  0.00000000E+00  0.00000000E+00
  0.00000000E+00  0.00000000E+00  0.00000000E+00
  0.00000000E+00  0.00000000E+00  0.00000000E+00
  0.00000000E+00  0.00000000E+00  0.00000000E+00
  0.00000000E+00  0.00000000E+00  0.00000000E+00
  0.00000000E+00  0.00000000E+00  0.00000000E+00
  0.00000000E+00  0.00000000E+00  0.00000000E+00
  0.00000000E+00  0.00000000E+00  0.00000000E+00
  0.00000000E+00  0.00000000E+00  0.00000000E+00
  0.00000000E+00  0.00000000E+00  0.00000000E+00
  0.00000000E+00  0.00000000E+00  0.00000000E+00
  0.00000000E+00  0.00000000E+00  0.00000000E+00
  0.00000000E+00  0.00000000E+00  0.00000000E+00
  0.00000000E+00  0.00000000E+00  0.00000000E+00
