XCrySDen XSF file                       
    1.000000000000000     
     4.0099999999999998    0.0000000000000000    0.0000000000000000
     0.0000000000000000    4.0099999999999998    0.0000000000000000
     0.0000000000000000    0.0000000000000000   34.8404086784563489
   Pb   Ti   O 
     9     9    27
Direct
  0.0624743017234837  0.0361110504303079  0.0023741152003750
  0.0419730365315369  0.0587748429259674  0.1134986153738660
  0.9986083554976761  0.0737247084666346  0.2245779675196789
  0.9517552550230253  0.0535109572414251  0.3356859556902725
  0.9253149720187998  0.0021548159176772  0.4468184592536303
  0.9451995736824985  0.9519329862157924  0.5579247586961910
  0.9968576495255138  0.9254941516603302  0.6690592760575641
  0.0468118033547017  0.9456220907458368  0.7801681288300382
  0.0725002526039169  0.9928822342169102  0.8913046278019215
  0.5325469366467517  0.5293893521508203  0.0578496776824335
  0.5218693414327692  0.5351391218601067  0.1688811952846075
  0.4767965068625951  0.5356241122522869  0.2800956672748137
  0.4650215398968301  0.5257058445010432  0.3911043557229265
  0.4631520934971576  0.4774246536430496  0.5023248426687726
  0.4729267358633259  0.4651439424760717  0.6133415185203808
  0.5211739232990410  0.4634228744786039  0.7245643050529387
  0.5330474654492989  0.4725774507107888  0.8355821957800275
  0.5356674866662841  0.5172945770330325  0.9467972907109918
  0.4760236655985182  0.4833705240264154  0.0022547840404227
  0.4855412278675457  0.9879443562913679  0.0573973916172502
  0.9898778173878652  0.4837603520875807  0.0580885396472977
  0.4848832564779426  0.4755907321574517  0.1132824410206945
  0.4934940232942451  0.9858102627745300  0.1685409267726351
  0.9938175487196443  0.4791807747749547  0.1689712246181195
  0.5014102414338169  0.4707129804602712  0.2244079544314245
  0.5091774373409295  0.9876289844385778  0.2803619219600560
  0.0082039735657574  0.4817186183960964  0.2796762771097050
  0.5187209887769949  0.4804010467555657  0.3355201409111505
  0.5178701274424662  0.9927177366205894  0.3913500203844535
  0.0121263706210364  0.4916792052300699  0.3905778355822969
  0.5280463996306620  0.5002386262775561  0.4466418433019990
  0.5171807346688982  0.0081395755326988  0.5019312375980508
  0.0111762293248936  0.5088062500817229  0.5025767124406803
  0.5182228588804080  0.5187559881402960  0.5577605605519756
  0.5067390668988633  0.0122595596392953  0.6128176723574481
  0.0057867765843574  0.5180111440880052  0.6135869523882026
  0.4980469366024694  0.5282167579047614  0.6688849530841849
  0.4894188671113991  0.0113848437848298  0.7248211404988560
  0.9901722270478500  0.5173746784548143  0.7241670923739602
  0.4793688473293339  0.5183661098175787  0.7800044164792220
  0.4802649950936366  0.0060847969934353  0.8358441400590125
  0.9859610163793021  0.5074302847081631  0.8350528717950221
  0.4699093485386661  0.4995357084354157  0.8911191094054700
  0.4790275433366293  0.9914305853535786  0.9465333878096966
  0.9858343014737050  0.4915198008479412  0.9468805846409606
 
  0.00000000E+00  0.00000000E+00  0.00000000E+00
  0.00000000E+00  0.00000000E+00  0.00000000E+00
  0.00000000E+00  0.00000000E+00  0.00000000E+00
  0.00000000E+00  0.00000000E+00  0.00000000E+00
  0.00000000E+00  0.00000000E+00  0.00000000E+00
  0.00000000E+00  0.00000000E+00  0.00000000E+00
  0.00000000E+00  0.00000000E+00  0.00000000E+00
  0.00000000E+00  0.00000000E+00  0.00000000E+00
  0.00000000E+00  0.00000000E+00  0.00000000E+00
  0.00000000E+00  0.00000000E+00  0.00000000E+00
  0.00000000E+00  0.00000000E+00  0.00000000E+00
  0.00000000E+00  0.00000000E+00  0.00000000E+00
  0.00000000E+00  0.00000000E+00  0.00000000E+00
  0.00000000E+00  0.00000000E+00  0.00000000E+00
  0.00000000E+00  0.00000000E+00  0.00000000E+00
  0.00000000E+00  0.00000000E+00  0.00000000E+00
  0.00000000E+00  0.00000000E+00  0.00000000E+00
  0.00000000E+00  0.00000000E+00  0.00000000E+00
  0.00000000E+00  0.00000000E+00  0.00000000E+00
  0.00000000E+00  0.00000000E+00  0.00000000E+00
  0.00000000E+00  0.00000000E+00  0.00000000E+00
  0.00000000E+00  0.00000000E+00  0.00000000E+00
  0.00000000E+00  0.00000000E+00  0.00000000E+00
  0.00000000E+00  0.00000000E+00  0.00000000E+00
  0.00000000E+00  0.00000000E+00  0.00000000E+00
  0.00000000E+00  0.00000000E+00  0.00000000E+00
  0.00000000E+00  0.00000000E+00  0.00000000E+00
  0.00000000E+00  0.00000000E+00  0.00000000E+00
  0.00000000E+00  0.00000000E+00  0.00000000E+00
  0.00000000E+00  0.00000000E+00  0.00000000E+00
  0.00000000E+00  0.00000000E+00  0.00000000E+00
  0.00000000E+00  0.00000000E+00  0.00000000E+00
  0.00000000E+00  0.00000000E+00  0.00000000E+00
  0.00000000E+00  0.00000000E+00  0.00000000E+00
  0.00000000E+00  0.00000000E+00  0.00000000E+00
  0.00000000E+00  0.00000000E+00  0.00000000E+00
  0.00000000E+00  0.00000000E+00  0.00000000E+00
  0.00000000E+00  0.00000000E+00  0.00000000E+00
  0.00000000E+00  0.00000000E+00  0.00000000E+00
  0.00000000E+00  0.00000000E+00  0.00000000E+00
  0.00000000E+00  0.00000000E+00  0.00000000E+00
  0.00000000E+00  0.00000000E+00  0.00000000E+00
  0.00000000E+00  0.00000000E+00  0.00000000E+00
  0.00000000E+00  0.00000000E+00  0.00000000E+00
  0.00000000E+00  0.00000000E+00  0.00000000E+00
