XCrySDen XSF file                       
    1.000000000000000     
     3.9620000000000002    0.0000000000000000    0.0000000000000000
     0.0000000000000000    3.9620000000000002    0.0000000000000000
     0.0000000000000000    0.0000000000000000   50.7646658293563036
   Pb   Ti   O 
    13    13    39
Direct
  0.0500947764757941  0.0415160689398942  0.0025618912541281
  0.0364787011645666  0.0547872821212399  0.0794818104358024
  0.0035444875779330  0.0666997375281663  0.1563929649152120
  0.9685185072143861  0.0578016534911731  0.2333080073582285
  0.9475380254237514  0.0403280423610511  0.3102540656510088
  0.9328037713391114  0.0047543723074638  0.3871740097654757
  0.9417737678039557  0.9686240053067127  0.4640894948103408
  0.9593242741786520  0.9476452727276663  0.5410378660408176
  0.9946716582796850  0.9331574531816698  0.6179587275402268
  0.0304432520138234  0.9421103449693939  0.6948722116775405
  0.0505668479291592  0.9589913440248540  0.7718147989367657
  0.0649834315511984  0.9931687976296716  0.8487371281904752
  0.0587922348233871  0.0261833558753210  0.9256439564592486
  0.5287493125898501  0.5259749163814330  0.0409088358181933
  0.5193192830765032  0.5310603577139722  0.1178107932761608
  0.4878172175560533  0.5333694699120618  0.1947990958411616
  0.4756166213324776  0.5309264901433822  0.2716925130755886
  0.4688118101545974  0.5209641435683297  0.3485839799910209
  0.4661082223914769  0.4882263598165136  0.4255765055730233
  0.4685685774761179  0.4758324712263122  0.5024740773209132
  0.4785080245586928  0.4691330368576104  0.5793687324959711
  0.5110168894118429  0.4664558260199566  0.6563610137852158
  0.5229497410255056  0.4687747000689397  0.7332574806692709
  0.5291746172256913  0.4781634228476536  0.8101468089562931
  0.5319044911870234  0.5092691126718653  0.8871349055706463
  0.5312853061253905  0.5204105055026377  0.9640423015437856
  0.4857565174399229  0.4805028624431474  0.0023332731530223
  0.4897875297987496  0.9886395445172897  0.0405740771398195
  0.9963421024566607  0.4801426767063924  0.0408861387725731
  0.4925261043040584  0.4773825911794048  0.0792204648663737
  0.4973423698984967  0.9886058941143474  0.1175076030697890
 -0.0002733844152064  0.4783128291437535  0.1177371820638289
  0.5041787672427006  0.4754003652140786  0.1561615872420384
  0.5109574926436737  0.9911873700068996  0.1947761253223425
  0.0082720674820233  0.4811326478320876  0.1944765362247331
  0.5151611181675653  0.4824434453625185  0.2331030765068704
  0.5175432931808798  0.9956339707034999  0.2717334452708766
  0.0101498211686465  0.4882138240859155  0.2712875426750294
  0.5210533342889517  0.4913374929816248  0.3099970038920398
  0.5207699859428117 -0.0004147310203553  0.3485440378673630
  0.0106872810694171  0.4969043189862103  0.3482405965390682
  0.5240729622201133  0.5040951101107396  0.3869385815702823
  0.5183507727812597  0.0084945143127339  0.4252579426054806
  0.0082786422515173  0.5111180073724685  0.4255529659775770
  0.5169406960586357  0.5154672911307284  0.4638837477597362
  0.5111703155292848  0.0104546702003746  0.5020687728532177
  0.0037751126024703  0.5178822688655302  0.5025159565144585
  0.5079623285569570  0.5214513608274125  0.5407803274136342
  0.5024034257609836  0.0110543927533385  0.5790284172754768
 -0.0002608257811958  0.5211632839517422  0.5793269317561379
  0.4951417559020631  0.5244245848464580  0.6177232583102789
  0.4880794748865795  0.0086205625146854  0.6563386553534371
  0.9906929967954372  0.5186963165762467  0.6560417269091986
  0.4835428902690747  0.5172542798222912  0.6946674038962874
  0.4810181999984264  0.0040874206958814  0.7332953867855939
  0.9884157650584982  0.5115373992394983  0.7328549006209900
  0.4772996632457003  0.5084099398433266  0.7715602377796826
  0.4773205891956871  0.0000502878478372  0.8101157902363125
  0.9873706977866218  0.5029065816640991  0.8097972623138513
  0.4737444943252753  0.4958220873468541  0.8484991823403294
  0.4787680537480279  0.9912461350409417  0.8868536993300802
  0.9891241449458735  0.4890859883189394  0.8870677300301326
  0.4795705771537120  0.4850227577666809  0.9254440093755247
  0.4844945033595232  0.9891279502054906  0.9637062751616852
  0.9931045127934597  0.4827731632938776  0.9640067785366692
 
  0.00000000E+00  0.00000000E+00  0.00000000E+00
  0.00000000E+00  0.00000000E+00  0.00000000E+00
  0.00000000E+00  0.00000000E+00  0.00000000E+00
  0.00000000E+00  0.00000000E+00  0.00000000E+00
  0.00000000E+00  0.00000000E+00  0.00000000E+00
  0.00000000E+00  0.00000000E+00  0.00000000E+00
  0.00000000E+00  0.00000000E+00  0.00000000E+00
  0.00000000E+00  0.00000000E+00  0.00000000E+00
  0.00000000E+00  0.00000000E+00  0.00000000E+00
  0.00000000E+00  0.00000000E+00  0.00000000E+00
  0.00000000E+00  0.00000000E+00  0.00000000E+00
  0.00000000E+00  0.00000000E+00  0.00000000E+00
  0.00000000E+00  0.00000000E+00  0.00000000E+00
  0.00000000E+00  0.00000000E+00  0.00000000E+00
  0.00000000E+00  0.00000000E+00  0.00000000E+00
  0.00000000E+00  0.00000000E+00  0.00000000E+00
  0.00000000E+00  0.00000000E+00  0.00000000E+00
  0.00000000E+00  0.00000000E+00  0.00000000E+00
  0.00000000E+00  0.00000000E+00  0.00000000E+00
  0.00000000E+00  0.00000000E+00  0.00000000E+00
  0.00000000E+00  0.00000000E+00  0.00000000E+00
  0.00000000E+00  0.00000000E+00  0.00000000E+00
  0.00000000E+00  0.00000000E+00  0.00000000E+00
  0.00000000E+00  0.00000000E+00  0.00000000E+00
  0.00000000E+00  0.00000000E+00  0.00000000E+00
  0.00000000E+00  0.00000000E+00  0.00000000E+00
  0.00000000E+00  0.00000000E+00  0.00000000E+00
  0.00000000E+00  0.00000000E+00  0.00000000E+00
  0.00000000E+00  0.00000000E+00  0.00000000E+00
  0.00000000E+00  0.00000000E+00  0.00000000E+00
  0.00000000E+00  0.00000000E+00  0.00000000E+00
  0.00000000E+00  0.00000000E+00  0.00000000E+00
  0.00000000E+00  0.00000000E+00  0.00000000E+00
  0.00000000E+00  0.00000000E+00  0.00000000E+00
  0.00000000E+00  0.00000000E+00  0.00000000E+00
  0.00000000E+00  0.00000000E+00  0.00000000E+00
  0.00000000E+00  0.00000000E+00  0.00000000E+00
  0.00000000E+00  0.00000000E+00  0.00000000E+00
  0.00000000E+00  0.00000000E+00  0.00000000E+00
  0.00000000E+00  0.00000000E+00  0.00000000E+00
  0.00000000E+00  0.00000000E+00  0.00000000E+00
  0.00000000E+00  0.00000000E+00  0.00000000E+00
  0.00000000E+00  0.00000000E+00  0.00000000E+00
  0.00000000E+00  0.00000000E+00  0.00000000E+00
  0.00000000E+00  0.00000000E+00  0.00000000E+00
  0.00000000E+00  0.00000000E+00  0.00000000E+00
  0.00000000E+00  0.00000000E+00  0.00000000E+00
  0.00000000E+00  0.00000000E+00  0.00000000E+00
  0.00000000E+00  0.00000000E+00  0.00000000E+00
  0.00000000E+00  0.00000000E+00  0.00000000E+00
  0.00000000E+00  0.00000000E+00  0.00000000E+00
  0.00000000E+00  0.00000000E+00  0.00000000E+00
  0.00000000E+00  0.00000000E+00  0.00000000E+00
  0.00000000E+00  0.00000000E+00  0.00000000E+00
  0.00000000E+00  0.00000000E+00  0.00000000E+00
  0.00000000E+00  0.00000000E+00  0.00000000E+00
  0.00000000E+00  0.00000000E+00  0.00000000E+00
  0.00000000E+00  0.00000000E+00  0.00000000E+00
  0.00000000E+00  0.00000000E+00  0.00000000E+00
  0.00000000E+00  0.00000000E+00  0.00000000E+00
  0.00000000E+00  0.00000000E+00  0.00000000E+00
  0.00000000E+00  0.00000000E+00  0.00000000E+00
  0.00000000E+00  0.00000000E+00  0.00000000E+00
  0.00000000E+00  0.00000000E+00  0.00000000E+00
  0.00000000E+00  0.00000000E+00  0.00000000E+00
