XCrySDen XSF file                       
    1.000000000000000     
     3.9100000000000001    0.0000000000000000    0.0000000000000000
     0.0000000000000000    3.9100000000000001    0.0000000000000000
     0.0000000000000000    0.0000000000000000   32.7252746148564597
   Pb   Ti   O 
     8     8    24
Direct
  0.0115094911167708  0.9934707624137927  0.0114361991845409
  0.0127447870814897  0.0035530070778047  0.1364361504281904
  0.0065292375862712  0.0115094911167708  0.2614361921845226
  0.9964469729221723  0.0127447870814897  0.3864361504281762
  0.9884905238832056  0.0065292375862712  0.5114361921845795
  0.9872551929184732  0.9964469729221723  0.6364361504281548
  0.9934707624137927  0.9884905238832056  0.7614361921845795
  0.0035530070778047  0.9872551929184732  0.8864361504281548
  0.5102494598653854  0.4950019978953704  0.0692749645197112
  0.5107878762100020  0.5036811519457853  0.1942774527087954
  0.5049980021045798  0.5102494598653854  0.3192749795196875
  0.4963188180542549  0.5107878762100020  0.4442774677087718
  0.4897505401346147  0.5049980021045798  0.5692749495197064
  0.4892120937899174  0.4963188180542549  0.6942774377087977
  0.4950019978953704  0.4897505401346147  0.8192749495197064
  0.5036811519457853  0.4892120937899174  0.9442774377087977
  0.5008358495794248  0.4892409067633382  0.9988463905304552
  0.5041450687823292  0.9909596712595049  0.0602761078492563
  0.0055951231336726  0.4893660752832735  0.0602902143001328
  0.5081932586760071  0.4929667717384182  0.1238440428479702
  0.5103881137601466  0.9975566159360780  0.1852756396629911
  0.0103101423511800  0.4953971798474294  0.1852940829679490
  0.5107590932366263  0.5008358495794248  0.2488463905304979
  0.5106339247166626  0.0055951231336726  0.3102901993001422
  0.0090403287404808  0.5041450687823292  0.3102760928492586
  0.5070332282615250  0.5081932586760071  0.3738440428479560
  0.5046028201525138  0.0103101423511800  0.4352940679679158
  0.0024433840638580  0.5103881137601466  0.4352756246630077
  0.4991641504206036  0.5107590932366263  0.4988463905304979
  0.4958549312175854  0.0090403287404808  0.5602760928492941
  0.9944048768663345  0.5106339247166626  0.5602901993000428
  0.4918067413239290  0.5070332282615250  0.6238440428479205
  0.4896118862398534  0.0024433840638580  0.6852756246630218
  0.9896898576488555  0.5046028201525138  0.6852940679679513
  0.4892409067633382  0.4991641504206036  0.7488463905304481
  0.4893660752832735  0.9944048768663345  0.8102901993000428
  0.9909596712595049  0.4958549312175854  0.8102760928492941
  0.4929667717384182  0.4918067413239290  0.8738440428479205
  0.4953971798474294  0.9896898576488555  0.9352940679679513
  0.9975566159360780  0.4896118862398534  0.9352756246630218
 
  0.00000000E+00  0.00000000E+00  0.00000000E+00
  0.00000000E+00  0.00000000E+00  0.00000000E+00
  0.00000000E+00  0.00000000E+00  0.00000000E+00
  0.00000000E+00  0.00000000E+00  0.00000000E+00
  0.00000000E+00  0.00000000E+00  0.00000000E+00
  0.00000000E+00  0.00000000E+00  0.00000000E+00
  0.00000000E+00  0.00000000E+00  0.00000000E+00
  0.00000000E+00  0.00000000E+00  0.00000000E+00
  0.00000000E+00  0.00000000E+00  0.00000000E+00
  0.00000000E+00  0.00000000E+00  0.00000000E+00
  0.00000000E+00  0.00000000E+00  0.00000000E+00
  0.00000000E+00  0.00000000E+00  0.00000000E+00
  0.00000000E+00  0.00000000E+00  0.00000000E+00
  0.00000000E+00  0.00000000E+00  0.00000000E+00
  0.00000000E+00  0.00000000E+00  0.00000000E+00
  0.00000000E+00  0.00000000E+00  0.00000000E+00
  0.00000000E+00  0.00000000E+00  0.00000000E+00
  0.00000000E+00  0.00000000E+00  0.00000000E+00
  0.00000000E+00  0.00000000E+00  0.00000000E+00
  0.00000000E+00  0.00000000E+00  0.00000000E+00
  0.00000000E+00  0.00000000E+00  0.00000000E+00
  0.00000000E+00  0.00000000E+00  0.00000000E+00
  0.00000000E+00  0.00000000E+00  0.00000000E+00
  0.00000000E+00  0.00000000E+00  0.00000000E+00
  0.00000000E+00  0.00000000E+00  0.00000000E+00
  0.00000000E+00  0.00000000E+00  0.00000000E+00
  0.00000000E+00  0.00000000E+00  0.00000000E+00
  0.00000000E+00  0.00000000E+00  0.00000000E+00
  0.00000000E+00  0.00000000E+00  0.00000000E+00
  0.00000000E+00  0.00000000E+00  0.00000000E+00
  0.00000000E+00  0.00000000E+00  0.00000000E+00
  0.00000000E+00  0.00000000E+00  0.00000000E+00
  0.00000000E+00  0.00000000E+00  0.00000000E+00
  0.00000000E+00  0.00000000E+00  0.00000000E+00
  0.00000000E+00  0.00000000E+00  0.00000000E+00
  0.00000000E+00  0.00000000E+00  0.00000000E+00
  0.00000000E+00  0.00000000E+00  0.00000000E+00
  0.00000000E+00  0.00000000E+00  0.00000000E+00
  0.00000000E+00  0.00000000E+00  0.00000000E+00
  0.00000000E+00  0.00000000E+00  0.00000000E+00
