XCrySDen XSF file                       
    1.000000000000000     
     3.9940000000000002    0.0000000000000000    0.0000000000000000
     0.0000000000000000    3.9940000000000002    0.0000000000000000
     0.0000000000000000    0.0000000000000000   15.6324466266396218
   Pb   Ti   O 
     4     4    12
Direct
  0.0542045661241578  0.9987370965082214  0.0156881313933458
  0.0012629034917786  0.0542045661241578  0.2656881313949587
  0.9457954338758493  0.0012629034917786  0.5156881313965718
  0.9987370965082214  0.9457954338758493  0.7656881313981776
  0.5315652084916572  0.5177188619864841  0.1346955413168275
  0.4822811380135158  0.5315652084916572  0.3846955413184404
  0.4684347915083426  0.4822811380135158  0.6346955413200461
  0.5177188619864841  0.4684347915083426  0.8846955413216591
  0.4789841149735044  0.4904909805255735  0.0035691485607535
  0.4971105376565780  0.9857380414985408  0.1259587314966144
  0.9975748008866727  0.4827318431797492  0.1271350409040110
  0.5095090194744265  0.4789841149735044  0.2535691485623665
  0.5172681568202508  0.9975748008866727  0.3771350409056239
  0.0142619585014592  0.4971105376565780  0.3759587314982272
  0.5210158850264957  0.5095090194744265  0.5035691485639795
  0.5028894623434221  0.0142619585014592  0.6259587314998473
  0.0024251991133273  0.5172681568202508  0.6271350409072368
  0.4904909805255735  0.5210158850264957  0.7535691485655853
  0.4827318431797492  0.0024251991133273  0.8771350409088498
  0.9857380414985408  0.5028894623434221  0.8759587315014602
 
  0.00000000E+00  0.00000000E+00  0.00000000E+00
  0.00000000E+00  0.00000000E+00  0.00000000E+00
  0.00000000E+00  0.00000000E+00  0.00000000E+00
  0.00000000E+00  0.00000000E+00  0.00000000E+00
  0.00000000E+00  0.00000000E+00  0.00000000E+00
  0.00000000E+00  0.00000000E+00  0.00000000E+00
  0.00000000E+00  0.00000000E+00  0.00000000E+00
  0.00000000E+00  0.00000000E+00  0.00000000E+00
  0.00000000E+00  0.00000000E+00  0.00000000E+00
  0.00000000E+00  0.00000000E+00  0.00000000E+00
  0.00000000E+00  0.00000000E+00  0.00000000E+00
  0.00000000E+00  0.00000000E+00  0.00000000E+00
  0.00000000E+00  0.00000000E+00  0.00000000E+00
  0.00000000E+00  0.00000000E+00  0.00000000E+00
  0.00000000E+00  0.00000000E+00  0.00000000E+00
  0.00000000E+00  0.00000000E+00  0.00000000E+00
  0.00000000E+00  0.00000000E+00  0.00000000E+00
  0.00000000E+00  0.00000000E+00  0.00000000E+00
  0.00000000E+00  0.00000000E+00  0.00000000E+00
  0.00000000E+00  0.00000000E+00  0.00000000E+00
