XCrySDen XSF file                       
    1.000000000000000     
     4.0279999999999996    0.0000000000000000    0.0000000000000000
     0.0000000000000000    4.0279999999999996    0.0000000000000000
     0.0000000000000000    0.0000000000000000   38.5954095193770002
   Pb   Ti   O 
    10    10    30
Direct
  0.0778208796508861  0.9989161193967072  0.0022066725519043
  0.0573830545219067  0.0484833223193932  0.1022101456123053
  0.0081933035730391  0.0761776451174408  0.2022330541354032
  0.9642866562114485  0.0663963235572496  0.3022155704614901
  0.9400181044158956  0.0462792004743492  0.4022181968761076
  0.9221791353486072  0.0010838806032147  0.5022066565512492
  0.9426169154778351  0.9515166926807042  0.6022101526111087
  0.9918067194279824  0.9238223588838383  0.7022330241359833
  0.0357133667887987  0.9336036804437029  0.8022155704608577
  0.0599818655833769  0.9537208145255847  0.9022182258756871
  0.5380858767644302  0.5221314256039696  0.0521086383758608
  0.5300538470067876  0.5338568434811948  0.1520098132801328
  0.4826959212148743  0.5373229077041932  0.2521348602616231
  0.4707956888112490  0.5352661000209337  0.3520708218126861
  0.4639126117869898  0.5260782440891753  0.4519830232790009
  0.4619141232351506  0.4778685743945453  0.5521086343760453
  0.4699461819938365  0.4661431565184713  0.6520098282805427
  0.5173040487852582  0.4626770922957429  0.7521348602605072
  0.5292042811906029  0.4647338999787323  0.8520708218134037
  0.5360874172127175  0.4739217559094178  0.9519829932798083
  0.4687860340853300  0.4959562032195100  0.0019618591569544
  0.4827339851370736  0.9881044771534969  0.0516663490671767
  0.9871581529727242  0.4879875162354421  0.0523571494994872
  0.4812214785701593  0.4773359162003666  0.1019681753248120
  0.4940043916395718  0.9836927351716498  0.1514419169400182
  0.9942165501849936  0.4793454602699210  0.1522239239736969
  0.5020528135726846  0.4673856640351028  0.2019762411508003
  0.5101187679427384  0.9844074964339466  0.2521767543147966
  0.0109766823769413  0.4791251158577122  0.2518537183998917
  0.5187186279449353  0.4749557563468658  0.3020126051112878
  0.5177241340756595  0.9895875012102617  0.3522822247128585
  0.0146743638448405  0.4863087177492352  0.3515961465991477
  0.5265064506641405  0.4855916857343828  0.4019404315282018
  0.5212592792038139  0.9953082205870878  0.4520434187969233
  0.0161362689255604  0.4960077241631269  0.4516108127773215
  0.5312139659147623  0.5040437967787562  0.5019618591571036
  0.5172660148632603  0.0118955228463966  0.5516663380670799
  0.0128418470278584  0.5120124837658441  0.5523571384988289
  0.5187785214300823  0.5226640837989442  0.6019681983263094
  0.5059956083616004  0.0163072648287767  0.6514419309415044
  0.0057834498139620  0.5206545397287643  0.6522239379738615
  0.4979471864265123  0.5326143359647481  0.7019762261498149
  0.4898812320579226  0.0155925035662169  0.7521767253142009
  0.9890233176226750  0.5208748841403269  0.7518536893994381
  0.4812813720532386  0.5250442436538590  0.8020126051097672
  0.4822758659245108  0.0104124987891699  0.8522822247149617
  0.9853256361561046  0.5136912822518945  0.8515961466005971
  0.4734935493345593  0.5144083142655249  0.9019404015289809
  0.4787407207959448  0.0046917794132037  0.9520434477984498
  0.9838637310743971  0.5039922758372070  0.9516108417775689
 
  0.00000000E+00  0.00000000E+00  0.00000000E+00
  0.00000000E+00  0.00000000E+00  0.00000000E+00
  0.00000000E+00  0.00000000E+00  0.00000000E+00
  0.00000000E+00  0.00000000E+00  0.00000000E+00
  0.00000000E+00  0.00000000E+00  0.00000000E+00
  0.00000000E+00  0.00000000E+00  0.00000000E+00
  0.00000000E+00  0.00000000E+00  0.00000000E+00
  0.00000000E+00  0.00000000E+00  0.00000000E+00
  0.00000000E+00  0.00000000E+00  0.00000000E+00
  0.00000000E+00  0.00000000E+00  0.00000000E+00
  0.00000000E+00  0.00000000E+00  0.00000000E+00
  0.00000000E+00  0.00000000E+00  0.00000000E+00
  0.00000000E+00  0.00000000E+00  0.00000000E+00
  0.00000000E+00  0.00000000E+00  0.00000000E+00
  0.00000000E+00  0.00000000E+00  0.00000000E+00
  0.00000000E+00  0.00000000E+00  0.00000000E+00
  0.00000000E+00  0.00000000E+00  0.00000000E+00
  0.00000000E+00  0.00000000E+00  0.00000000E+00
  0.00000000E+00  0.00000000E+00  0.00000000E+00
  0.00000000E+00  0.00000000E+00  0.00000000E+00
  0.00000000E+00  0.00000000E+00  0.00000000E+00
  0.00000000E+00  0.00000000E+00  0.00000000E+00
  0.00000000E+00  0.00000000E+00  0.00000000E+00
  0.00000000E+00  0.00000000E+00  0.00000000E+00
  0.00000000E+00  0.00000000E+00  0.00000000E+00
  0.00000000E+00  0.00000000E+00  0.00000000E+00
  0.00000000E+00  0.00000000E+00  0.00000000E+00
  0.00000000E+00  0.00000000E+00  0.00000000E+00
  0.00000000E+00  0.00000000E+00  0.00000000E+00
  0.00000000E+00  0.00000000E+00  0.00000000E+00
  0.00000000E+00  0.00000000E+00  0.00000000E+00
  0.00000000E+00  0.00000000E+00  0.00000000E+00
  0.00000000E+00  0.00000000E+00  0.00000000E+00
  0.00000000E+00  0.00000000E+00  0.00000000E+00
  0.00000000E+00  0.00000000E+00  0.00000000E+00
  0.00000000E+00  0.00000000E+00  0.00000000E+00
  0.00000000E+00  0.00000000E+00  0.00000000E+00
  0.00000000E+00  0.00000000E+00  0.00000000E+00
  0.00000000E+00  0.00000000E+00  0.00000000E+00
  0.00000000E+00  0.00000000E+00  0.00000000E+00
  0.00000000E+00  0.00000000E+00  0.00000000E+00
  0.00000000E+00  0.00000000E+00  0.00000000E+00
  0.00000000E+00  0.00000000E+00  0.00000000E+00
  0.00000000E+00  0.00000000E+00  0.00000000E+00
  0.00000000E+00  0.00000000E+00  0.00000000E+00
  0.00000000E+00  0.00000000E+00  0.00000000E+00
  0.00000000E+00  0.00000000E+00  0.00000000E+00
  0.00000000E+00  0.00000000E+00  0.00000000E+00
  0.00000000E+00  0.00000000E+00  0.00000000E+00
  0.00000000E+00  0.00000000E+00  0.00000000E+00
