XCrySDen XSF file                       
    1.000000000000000     
     3.9560000000000000    0.0000000000000000    0.0000000000000000
     0.0000000000000000    3.9560000000000000    0.0000000000000000
     0.0000000000000000    0.0000000000000000   39.4915375196029146
   Pb   Ti   O 
    10    10    30
Direct
  0.0511165100194515  0.9893801721509223  0.0061145862107895
  0.0469885213049475  0.0228152792417390  0.1061256002785984
  0.0198918115583914  0.0454999270030290  0.2061302775095292
  0.9883357536364642  0.0493023674510381  0.3060950979029328
  0.9643732668560567  0.0395316982251665  0.4061249209357040
  0.9488835049801980  0.0106198278495822  0.5061145702105536
  0.9530114486950713  0.9771847357580313  0.6061256072777642
  0.9801082114425734  0.9545000769981863  0.7061302475104717
  0.0116642693639889  0.9506976365496657  0.8060950979027907
  0.0356267031428821  0.9604683167748667  0.9061249499346441
  0.5329593304867922  0.4975196808724536  0.0538678075039733
  0.5326909825997331  0.5136276605875429  0.1538601224668727
  0.5085065423510980  0.5277206775155935  0.2538664199947320
  0.4931736198467864  0.5336318847520172  0.3538550968434504
  0.4787565302628685  0.5276417883980427  0.4538713149300686
  0.4670406695126393  0.5024803191260828  0.5538678035046197
  0.4673090464003793  0.4863723394126133  0.6538601374674106
  0.4914934276490417  0.4722793224842998  0.7538664199936874
  0.5068263501548596  0.4663681152477698  0.8538550968438555
  0.5212434987367964  0.4723582116005009  0.9538712849311036
  0.4841812645671970  0.4777276474292145  0.0005934919146059
  0.4940243107445219  0.9765750349407480  0.0496235614626478
  0.0001828484203201  0.4729695165985380  0.0499040047406375
  0.5011957204406305  0.4716025397948690  0.1005839860352804
  0.5092262242685965  0.9809989920471156  0.1496111840770175
  0.0122155695030719  0.4735076576631538  0.1499138303833693
  0.5194086926571889  0.4774252401328909  0.2005910372028985
  0.5251745201476657  0.9931159060654214  0.2498332061572407
  0.0232576060342098  0.4860815133586381  0.2497108949675765
  0.5282717891711817  0.4923335248741748  0.3005830558844467
  0.5283657365709479  0.0054498888062688  0.3499124512886814
  0.0220836498454904  0.5005473709926751  0.3495915258740259
  0.5263547148176284  0.5072537972266796  0.4005710820907818
  0.5215462776135821  0.0150030131341459  0.4498567447968304
  0.0135409474663132  0.5132576077171888  0.4497112225470266
  0.5158187354325046  0.5222723525692153  0.5005934919151388
  0.5059756892554073  0.0234249650594579  0.5496235504627498
 -0.0001828484197731  0.5270304834031461  0.5499039937403843
  0.4988042795588792  0.5283974602041148  0.6005840090367069
  0.4907737757331654  0.0190010079534741  0.6496111980786459
  0.9877844304958907  0.5264923423357164  0.6499138443830507
  0.4805913073416742  0.5225747598663062  0.7005910222020340
  0.4748254798524409  0.0068840939346708  0.7498331771565597
  0.9767423939658044  0.5139184866390170  0.7497108659669239
  0.4717282108268145  0.5076664751261877  0.8005830558825070
  0.4716342634291800  0.9945501111932481  0.8499124512905359
  0.9779163501556252  0.4994526290092293  0.8495915258754613
  0.4736452851810783  0.4927462027733987  0.9005710520918095
  0.4784537223859490  0.9849969868665504  0.9498567737985845
  0.9864590525339283  0.4867423922828182  0.9497112515470112
 
  0.00000000E+00  0.00000000E+00  0.00000000E+00
  0.00000000E+00  0.00000000E+00  0.00000000E+00
  0.00000000E+00  0.00000000E+00  0.00000000E+00
  0.00000000E+00  0.00000000E+00  0.00000000E+00
  0.00000000E+00  0.00000000E+00  0.00000000E+00
  0.00000000E+00  0.00000000E+00  0.00000000E+00
  0.00000000E+00  0.00000000E+00  0.00000000E+00
  0.00000000E+00  0.00000000E+00  0.00000000E+00
  0.00000000E+00  0.00000000E+00  0.00000000E+00
  0.00000000E+00  0.00000000E+00  0.00000000E+00
  0.00000000E+00  0.00000000E+00  0.00000000E+00
  0.00000000E+00  0.00000000E+00  0.00000000E+00
  0.00000000E+00  0.00000000E+00  0.00000000E+00
  0.00000000E+00  0.00000000E+00  0.00000000E+00
  0.00000000E+00  0.00000000E+00  0.00000000E+00
  0.00000000E+00  0.00000000E+00  0.00000000E+00
  0.00000000E+00  0.00000000E+00  0.00000000E+00
  0.00000000E+00  0.00000000E+00  0.00000000E+00
  0.00000000E+00  0.00000000E+00  0.00000000E+00
  0.00000000E+00  0.00000000E+00  0.00000000E+00
  0.00000000E+00  0.00000000E+00  0.00000000E+00
  0.00000000E+00  0.00000000E+00  0.00000000E+00
  0.00000000E+00  0.00000000E+00  0.00000000E+00
  0.00000000E+00  0.00000000E+00  0.00000000E+00
  0.00000000E+00  0.00000000E+00  0.00000000E+00
  0.00000000E+00  0.00000000E+00  0.00000000E+00
  0.00000000E+00  0.00000000E+00  0.00000000E+00
  0.00000000E+00  0.00000000E+00  0.00000000E+00
  0.00000000E+00  0.00000000E+00  0.00000000E+00
  0.00000000E+00  0.00000000E+00  0.00000000E+00
  0.00000000E+00  0.00000000E+00  0.00000000E+00
  0.00000000E+00  0.00000000E+00  0.00000000E+00
  0.00000000E+00  0.00000000E+00  0.00000000E+00
  0.00000000E+00  0.00000000E+00  0.00000000E+00
  0.00000000E+00  0.00000000E+00  0.00000000E+00
  0.00000000E+00  0.00000000E+00  0.00000000E+00
  0.00000000E+00  0.00000000E+00  0.00000000E+00
  0.00000000E+00  0.00000000E+00  0.00000000E+00
  0.00000000E+00  0.00000000E+00  0.00000000E+00
  0.00000000E+00  0.00000000E+00  0.00000000E+00
  0.00000000E+00  0.00000000E+00  0.00000000E+00
  0.00000000E+00  0.00000000E+00  0.00000000E+00
  0.00000000E+00  0.00000000E+00  0.00000000E+00
  0.00000000E+00  0.00000000E+00  0.00000000E+00
  0.00000000E+00  0.00000000E+00  0.00000000E+00
  0.00000000E+00  0.00000000E+00  0.00000000E+00
  0.00000000E+00  0.00000000E+00  0.00000000E+00
  0.00000000E+00  0.00000000E+00  0.00000000E+00
  0.00000000E+00  0.00000000E+00  0.00000000E+00
  0.00000000E+00  0.00000000E+00  0.00000000E+00
