XCrySDen XSF file                       
    1.000000000000000     
     3.9420000000000002    0.0000000000000000    0.0000000000000000
     0.0000000000000000    3.9420000000000002    0.0000000000000000
     0.0000000000000000    0.0000000000000000   23.5128800342517330
   Pb   Ti   O 
     6     6    18
Direct
  0.0435472450885752  0.0390604849045986  0.0053013396358577
  0.9948867120511097  0.0575910869404388  0.1719495963914406
  0.9423433460199560  0.0075805746229453  0.3386891368838063
  0.9564527549114247  0.9609395150954011  0.5053013396358575
  0.0051132879488901  0.9424089130595611  0.6719495963914477
  0.0576566539800442  0.9924194253770547  0.8386891368838062
  0.5172678205670322  0.5275998363098635  0.0885610796674588
  0.4774130251443913  0.5233129819061400  0.2552632989360413
  0.4713219724840428  0.4853729435570950  0.4219699279387305
  0.4827321794329680  0.4724001636901365  0.5885610796674589
  0.5225869748556086  0.4766870180938602  0.7552632989360412
  0.5286780275159570  0.5146270564429049  0.9219699279387304
  0.4849845725773892  0.4856176673739968  0.0051214017703188
  0.4922413400616326  0.9918295889837373  0.0880063267353224
  0.9960055268101543  0.4822952252683038  0.0887322109233422
  0.5022993826542097  0.4787088497217258  0.1717539427619679
  0.5127443874107100  0.9936645280942905  0.2557762594990933
  0.0066186796847802  0.4873616890379712  0.2544220073731685
  0.5211807201129606  0.4977737623643107  0.3385007065174447
  0.5177668709960623  0.0043864219319806  0.4215266589107149
  0.0079232561397657  0.5076591777930144  0.4221204101874292
  0.5150154274226107  0.5143823326260032  0.5051214017703187
  0.5077586599383673  0.0081704110162629  0.5880063267353224
  0.0039944731898454  0.5177047747316964  0.5887322109233424
  0.4977006173457904  0.5212911502782739  0.6717539427619680
  0.4872556125892898  0.0063354719057096  0.7557762594990930
  0.9933813203152194  0.5126383109620287  0.7544220073731688
  0.4788192798870395  0.5022262376356889  0.8385007065174452
  0.4822331290039377  0.9956135780680194  0.9215266589107148
  0.9920767438602345  0.4923408222069854  0.9221204101874294
 
  0.00000000E+00  0.00000000E+00  0.00000000E+00
  0.00000000E+00  0.00000000E+00  0.00000000E+00
  0.00000000E+00  0.00000000E+00  0.00000000E+00
  0.00000000E+00  0.00000000E+00  0.00000000E+00
  0.00000000E+00  0.00000000E+00  0.00000000E+00
  0.00000000E+00  0.00000000E+00  0.00000000E+00
  0.00000000E+00  0.00000000E+00  0.00000000E+00
  0.00000000E+00  0.00000000E+00  0.00000000E+00
  0.00000000E+00  0.00000000E+00  0.00000000E+00
  0.00000000E+00  0.00000000E+00  0.00000000E+00
  0.00000000E+00  0.00000000E+00  0.00000000E+00
  0.00000000E+00  0.00000000E+00  0.00000000E+00
  0.00000000E+00  0.00000000E+00  0.00000000E+00
  0.00000000E+00  0.00000000E+00  0.00000000E+00
  0.00000000E+00  0.00000000E+00  0.00000000E+00
  0.00000000E+00  0.00000000E+00  0.00000000E+00
  0.00000000E+00  0.00000000E+00  0.00000000E+00
  0.00000000E+00  0.00000000E+00  0.00000000E+00
  0.00000000E+00  0.00000000E+00  0.00000000E+00
  0.00000000E+00  0.00000000E+00  0.00000000E+00
  0.00000000E+00  0.00000000E+00  0.00000000E+00
  0.00000000E+00  0.00000000E+00  0.00000000E+00
  0.00000000E+00  0.00000000E+00  0.00000000E+00
  0.00000000E+00  0.00000000E+00  0.00000000E+00
  0.00000000E+00  0.00000000E+00  0.00000000E+00
  0.00000000E+00  0.00000000E+00  0.00000000E+00
  0.00000000E+00  0.00000000E+00  0.00000000E+00
  0.00000000E+00  0.00000000E+00  0.00000000E+00
  0.00000000E+00  0.00000000E+00  0.00000000E+00
  0.00000000E+00  0.00000000E+00  0.00000000E+00
