XCrySDen XSF file                       
    1.000000000000000     
     3.9319999999999999    0.0000000000000000    0.0000000000000000
     0.0000000000000000    3.9319999999999999    0.0000000000000000
     0.0000000000000000    0.0000000000000000   20.2627740404202790
   Pb   Ti   O 
     5     5    15
Direct
  0.0024060143864745  0.0006822100410395  0.0202560443831267
  0.0004439288087897  0.0032011717975173  0.2202569407465726
  0.9975833856074630  0.0023314290828589  0.4202807510570264
  0.9970414343074292  0.9992623433909634  0.6202861864203758
  0.0005496955539913  0.9970531391119175  0.8202750228121484
  0.5019982042504822  0.5010423438653495  0.1124488620646795
  0.4999361525353652  0.5026429144005454  0.3124650885879597
  0.4977312654910996  0.5012484149206753  0.5124956573438265
  0.4982739984645282  0.4987124829631472  0.7124821919312729
  0.5009830651896984  0.4978159860466185  0.9124780282837689
  0.5004680124877453  0.4977541048172679  0.0006624902878953
  0.5017929901421916  0.9985040899733102  0.0988152065664348
  0.0016041056488092  0.4980647934092217  0.0988039725685490
  0.5020917100582809  0.4993507419044648  0.2006711137760482
  0.5022615081795466  0.0007748374913136  0.2988158519885687
  0.0018943745589616  0.5006986147511272  0.2988227197379109
  0.5013051280938544  0.5012033864317029  0.4006798219203762
  0.5001516488041027  0.0015204590459644  0.4988460065126094
 -0.0001104400989366  0.5015114999947048  0.4988408022164957
  0.4989599976291093  0.5012770144050960  0.6006841539162705
  0.4980653032130445  0.0002507586251327  0.6988398876010932
  0.9981010307070555  0.5004813054671082  0.6988432772069240
  0.4981213050426559  0.4991355983259620  0.8006867216155295
  0.4990733648328439  0.9979226391935913  0.8988197328339630
  0.9992728161054139  0.4975577205433711  0.8988320758848569
 
  0.00000000E+00  0.00000000E+00  0.00000000E+00
  0.00000000E+00  0.00000000E+00  0.00000000E+00
  0.00000000E+00  0.00000000E+00  0.00000000E+00
  0.00000000E+00  0.00000000E+00  0.00000000E+00
  0.00000000E+00  0.00000000E+00  0.00000000E+00
  0.00000000E+00  0.00000000E+00  0.00000000E+00
  0.00000000E+00  0.00000000E+00  0.00000000E+00
  0.00000000E+00  0.00000000E+00  0.00000000E+00
  0.00000000E+00  0.00000000E+00  0.00000000E+00
  0.00000000E+00  0.00000000E+00  0.00000000E+00
  0.00000000E+00  0.00000000E+00  0.00000000E+00
  0.00000000E+00  0.00000000E+00  0.00000000E+00
  0.00000000E+00  0.00000000E+00  0.00000000E+00
  0.00000000E+00  0.00000000E+00  0.00000000E+00
  0.00000000E+00  0.00000000E+00  0.00000000E+00
  0.00000000E+00  0.00000000E+00  0.00000000E+00
  0.00000000E+00  0.00000000E+00  0.00000000E+00
  0.00000000E+00  0.00000000E+00  0.00000000E+00
  0.00000000E+00  0.00000000E+00  0.00000000E+00
  0.00000000E+00  0.00000000E+00  0.00000000E+00
  0.00000000E+00  0.00000000E+00  0.00000000E+00
  0.00000000E+00  0.00000000E+00  0.00000000E+00
  0.00000000E+00  0.00000000E+00  0.00000000E+00
  0.00000000E+00  0.00000000E+00  0.00000000E+00
  0.00000000E+00  0.00000000E+00  0.00000000E+00
