XCrySDen XSF file                       
    1.000000000000000     
     3.9600000000000000    0.0000000000000000    0.0000000000000000
     0.0000000000000000    3.9600000000000000    0.0000000000000000
     0.0000000000000000    0.0000000000000000   31.5933384122184329
   Pb   Ti   O 
     8     8    24
Direct
  0.0510984959622944  0.9960523011203323  0.0078246317265115
  0.0385284238117417  0.0346240477239499  0.1328617522234961
  0.0039476988798028  0.0510984959622944  0.2578246247267988
  0.9653759322760199  0.0385284238117488  0.3828617522235672
  0.9489015190371634  0.0039476988798028  0.5078246247268483
  0.9614715561884414  0.9653759322760199  0.6328617522235246
  0.9960523011203323  0.9489015190371634  0.7578246247268483
  0.0346240477239499  0.9614715561884414  0.8828617522235246
  0.5335009426099754  0.5029338283345521  0.0673747105071169
  0.5256161743850062  0.5218776218272746  0.1923882223550768
  0.4970661716659665  0.5335009426099754  0.3173747255071075
  0.4781223481727724  0.5256161743850062  0.4423882373551029
  0.4664990573894278  0.4970661716659665  0.5673746955071194
  0.4743837956156806  0.4781223481727724  0.6923882073560741
  0.5029338283345521  0.4664990573894278  0.8173746955071194
  0.5218776218272746  0.4743837956156806  0.9423882073560741
  0.4864200502826176  0.4773044273165104  0.0006613887098770
  0.4981389379238260  0.9780344576177074  0.0618605393959315
  0.0028961107313950  0.4732105289446161  0.0623428224303696
  0.5063413172124449  0.4737128780480606  0.1256456864032728
  0.5137979454107199  0.9871521760400455  0.1870700863000113
  0.0148441184637253  0.4796962827280175  0.1872214049481940
  0.5226955726839160  0.4864200502826176  0.2506613887101470
  0.5267894710555685  0.0028961107313950  0.3123428074302582
  0.0219655423820866  0.4981389379238260  0.3118605243962820
  0.5262871219516411  0.5063413172124449  0.3756456864031449
  0.5203037172716841  0.0148441184637253  0.4372213899482177
  0.0128478239597558  0.5137979454107199  0.4370700713001984
  0.5135799497173752  0.5226955726839160  0.5006613887098130
  0.5018610620764367  0.0219655423820866  0.5618605243960332
  0.9971038892688039  0.5267894710555685  0.5623428074302014
  0.4936586827877044  0.5262871219516411  0.6256456864031377
  0.4862020545903742  0.0128478239597558  0.6870700713002054
  0.9851558815365092  0.5203037172716841  0.6872213899481965
  0.4773044273165104  0.5135799497173752  0.7506613887099836
  0.4732105289446161  0.9971038892688039  0.8123428074302014
  0.9780344576177074  0.5018610620764367  0.8118605243960332
  0.4737128780480606  0.4936586827877044  0.8756456864031377
  0.4796962827280175  0.9851558815365092  0.9372213899481965
  0.9871521760400455  0.4862020545903742  0.9370700713002054
 
  0.00000000E+00  0.00000000E+00  0.00000000E+00
  0.00000000E+00  0.00000000E+00  0.00000000E+00
  0.00000000E+00  0.00000000E+00  0.00000000E+00
  0.00000000E+00  0.00000000E+00  0.00000000E+00
  0.00000000E+00  0.00000000E+00  0.00000000E+00
  0.00000000E+00  0.00000000E+00  0.00000000E+00
  0.00000000E+00  0.00000000E+00  0.00000000E+00
  0.00000000E+00  0.00000000E+00  0.00000000E+00
  0.00000000E+00  0.00000000E+00  0.00000000E+00
  0.00000000E+00  0.00000000E+00  0.00000000E+00
  0.00000000E+00  0.00000000E+00  0.00000000E+00
  0.00000000E+00  0.00000000E+00  0.00000000E+00
  0.00000000E+00  0.00000000E+00  0.00000000E+00
  0.00000000E+00  0.00000000E+00  0.00000000E+00
  0.00000000E+00  0.00000000E+00  0.00000000E+00
  0.00000000E+00  0.00000000E+00  0.00000000E+00
  0.00000000E+00  0.00000000E+00  0.00000000E+00
  0.00000000E+00  0.00000000E+00  0.00000000E+00
  0.00000000E+00  0.00000000E+00  0.00000000E+00
  0.00000000E+00  0.00000000E+00  0.00000000E+00
  0.00000000E+00  0.00000000E+00  0.00000000E+00
  0.00000000E+00  0.00000000E+00  0.00000000E+00
  0.00000000E+00  0.00000000E+00  0.00000000E+00
  0.00000000E+00  0.00000000E+00  0.00000000E+00
  0.00000000E+00  0.00000000E+00  0.00000000E+00
  0.00000000E+00  0.00000000E+00  0.00000000E+00
  0.00000000E+00  0.00000000E+00  0.00000000E+00
  0.00000000E+00  0.00000000E+00  0.00000000E+00
  0.00000000E+00  0.00000000E+00  0.00000000E+00
  0.00000000E+00  0.00000000E+00  0.00000000E+00
  0.00000000E+00  0.00000000E+00  0.00000000E+00
  0.00000000E+00  0.00000000E+00  0.00000000E+00
  0.00000000E+00  0.00000000E+00  0.00000000E+00
  0.00000000E+00  0.00000000E+00  0.00000000E+00
  0.00000000E+00  0.00000000E+00  0.00000000E+00
  0.00000000E+00  0.00000000E+00  0.00000000E+00
  0.00000000E+00  0.00000000E+00  0.00000000E+00
  0.00000000E+00  0.00000000E+00  0.00000000E+00
  0.00000000E+00  0.00000000E+00  0.00000000E+00
  0.00000000E+00  0.00000000E+00  0.00000000E+00
