XCrySDen XSF file                       
    1.000000000000000     
     4.0080000000000000    0.0000000000000000    0.0000000000000000
     0.0000000000000000    4.0080000000000000    0.0000000000000000
     0.0000000000000000    0.0000000000000000   23.2501266069157140
   Pb   Ti   O 
     6     6    18
Direct
  0.0528279618344637  0.0479278550836291  0.0052362621337214
  0.9952830644473405  0.0723642117725025  0.1718859542084431
  0.9276662412105955  0.0069781836163568  0.3386127869286544
  0.9471720381655363  0.9520721449163709  0.5052362621337214
  0.0047169355526596  0.9276357882274977  0.6718859542084502
  0.0723337587894046  0.9930218163836433  0.8386127869286544
  0.5239892180694384  0.5339391139353316  0.0884399840215882
  0.4704397531746353  0.5302085830154142  0.2552032177415350
  0.4650146581343520  0.4783793384998775  0.4219608789897218
  0.4760107819305616  0.4660608860646686  0.5884399840215881
  0.5295602468253647  0.4697914169845858  0.7552032177415351
  0.5349853418656479  0.5216206615001224  0.9219608789897218
  0.4807042084696614  0.4814586794307203  0.0051607895414650
  0.4921912148950330  0.9871283654129904  0.0878132252662479
  0.9927330843816509  0.4809154311917252  0.0888484825897558
  0.5022701011545871  0.4714767535830750  0.1717707983728672
  0.5121802899418849  0.9901211076455456  0.2561343096296828
  0.0102006721401719  0.4879496969899684  0.2541592010964155
  0.5283502626741871  0.4979370420649473  0.3385521821392929
  0.5190933564971569  0.0077385385504219  0.4215293046162493
  0.0126145960078535  0.5080822336361481  0.4223869268565111
  0.5192957915303389  0.5185413205692796  0.5051607895414649
  0.5078087851049670  0.0128716345870095  0.5878132252662479
  0.0072669156183493  0.5190845688082747  0.5888484825897560
  0.4977298988454129  0.5285232464169249  0.6717707983728674
  0.4878197100581150  0.0098788923544545  0.7561343096296825
  0.9897993278598282  0.5120503030100314  0.7541592010964157
  0.4716497373258129  0.5020629579350527  0.8385521821392931
  0.4809066435028431  0.9922614614495782  0.9215293046162494
  0.9873854039921466  0.4919177663638520  0.9223869268565112
 
  0.00000000E+00  0.00000000E+00  0.00000000E+00
  0.00000000E+00  0.00000000E+00  0.00000000E+00
  0.00000000E+00  0.00000000E+00  0.00000000E+00
  0.00000000E+00  0.00000000E+00  0.00000000E+00
  0.00000000E+00  0.00000000E+00  0.00000000E+00
  0.00000000E+00  0.00000000E+00  0.00000000E+00
  0.00000000E+00  0.00000000E+00  0.00000000E+00
  0.00000000E+00  0.00000000E+00  0.00000000E+00
  0.00000000E+00  0.00000000E+00  0.00000000E+00
  0.00000000E+00  0.00000000E+00  0.00000000E+00
  0.00000000E+00  0.00000000E+00  0.00000000E+00
  0.00000000E+00  0.00000000E+00  0.00000000E+00
  0.00000000E+00  0.00000000E+00  0.00000000E+00
  0.00000000E+00  0.00000000E+00  0.00000000E+00
  0.00000000E+00  0.00000000E+00  0.00000000E+00
  0.00000000E+00  0.00000000E+00  0.00000000E+00
  0.00000000E+00  0.00000000E+00  0.00000000E+00
  0.00000000E+00  0.00000000E+00  0.00000000E+00
  0.00000000E+00  0.00000000E+00  0.00000000E+00
  0.00000000E+00  0.00000000E+00  0.00000000E+00
  0.00000000E+00  0.00000000E+00  0.00000000E+00
  0.00000000E+00  0.00000000E+00  0.00000000E+00
  0.00000000E+00  0.00000000E+00  0.00000000E+00
  0.00000000E+00  0.00000000E+00  0.00000000E+00
  0.00000000E+00  0.00000000E+00  0.00000000E+00
  0.00000000E+00  0.00000000E+00  0.00000000E+00
  0.00000000E+00  0.00000000E+00  0.00000000E+00
  0.00000000E+00  0.00000000E+00  0.00000000E+00
  0.00000000E+00  0.00000000E+00  0.00000000E+00
  0.00000000E+00  0.00000000E+00  0.00000000E+00
