XCrySDen XSF file                       
    1.000000000000000     
     3.9220000000000002    0.0000000000000000    0.0000000000000000
     0.0000000000000000    3.9220000000000002    0.0000000000000000
     0.0000000000000000    0.0000000000000000    8.1495393154534881
   Pb   Ti   O 
     2     2     6
Direct
 -0.0002653078654010  0.0000000000000000  0.0385965181571595
  0.0002653078654010  0.0000000000000000  0.5385965181571595
  0.5000936685085492  0.5000000000000000  0.2692006744058687
  0.4999063314914503  0.5000000000000000  0.7692006744058691
  0.4999682099877130  0.5000000000000000 -0.0117362638434107
  0.4989730087261241  0.0000000000000000  0.2338895677766829
 -0.0007524896172860  0.5000000000000000  0.2338587002403941
  0.5000317900122871  0.5000000000000000  0.4882637361565892
  0.5010269912738760  0.0000000000000000  0.7338895677766829
  0.0007524896172860  0.5000000000000000  0.7338587002403942
 
  0.00000000E+00  0.00000000E+00  0.00000000E+00
  0.00000000E+00  0.00000000E+00  0.00000000E+00
  0.00000000E+00  0.00000000E+00  0.00000000E+00
  0.00000000E+00  0.00000000E+00  0.00000000E+00
  0.00000000E+00  0.00000000E+00  0.00000000E+00
  0.00000000E+00  0.00000000E+00  0.00000000E+00
  0.00000000E+00  0.00000000E+00  0.00000000E+00
  0.00000000E+00  0.00000000E+00  0.00000000E+00
  0.00000000E+00  0.00000000E+00  0.00000000E+00
  0.00000000E+00  0.00000000E+00  0.00000000E+00
