XCrySDen XSF file                       
    1.000000000000000     
     3.9480000000000000    0.0000000000000000    0.0000000000000000
     0.0000000000000000    3.9480000000000000    0.0000000000000000
     0.0000000000000000    0.0000000000000000   32.2052201843192947
   Pb   Ti   O 
     8     8    24
Direct
  0.0099084185839683  0.9939959672520633  0.0111726726497725
  0.0113194933477894  0.0033952512601051  0.1361746422153631
  0.0060040327480646  0.0099084185839683  0.2611726656500810
  0.9966047287398151  0.0113194933477965  0.3861746422154199
  0.9900915964155108  0.0060040327480646  0.5111726656500668
  0.9886804866524008  0.9966047287398151  0.6361746422154128
  0.9939959672520633  0.9900915964155108  0.7611726656500668
  0.0033952512601051  0.9886804866524008  0.8861746422154128
  0.5089244682586930  0.4963184679671515  0.0686737843127226
  0.5092319984472249  0.5039049244337940  0.1936759431004332
  0.5036815320333742  0.5089244682586930  0.3186737993127061
  0.4960950455662675  0.5092319984472249  0.4436759581004522
  0.4910755317407031  0.5036815320333742  0.5686737693126964
  0.4907679715534404  0.4960950455662675  0.6936759281014515
  0.4963184679671515  0.4910755317407031  0.8186737693126964
  0.5039049244337940  0.4907679715534404  0.9436759281014515
  0.4980745587906004  0.4919500866618143  0.9992543478280744
  0.5002287311429838  0.9921634662866582  0.0605077377328054
  0.0014759300128749  0.4913209939574918  0.0605140350345687
  0.5042138838215563  0.4929878112250038  0.1242533253992226
  0.5066107877675591  0.9959517830792616  0.1855089373820948
  0.0067728177445938  0.4946632300203498  0.1855158193448358
  0.5080499133385834  0.4980745587906004  0.2492543478283231
  0.5086790060427285  0.0014759300128749  0.3105140200344715
  0.0078365337131641  0.5002287311429838  0.3105077227331559
  0.5070121887747761  0.5042138838215563  0.3742533253991516
  0.5053367699793729  0.0067728177445938  0.4355158043448594
  0.0040482169205395  0.5066107877675591  0.4355089223822605
  0.5019254412093712  0.5080499133385834  0.4992543478279964
  0.4997712688572222  0.0078365337131641  0.5605077227328999
  0.9985240699873028  0.5086790060427285  0.5605140200343579
  0.4957861161785929  0.5070121887747761  0.6242533253990592
  0.4933892122334783  0.0040482169205395  0.6855089223822605
  0.9932271822556832  0.5053367699793729  0.6855158043448308
  0.4919500866618143  0.5019254412093712  0.7492543478281668
  0.4913209939574918  0.9985240699873028  0.8105140200343579
  0.9921634662866582  0.4997712688572222  0.8105077227328999
  0.4929878112250038  0.4957861161785929  0.8742533253990592
  0.4946632300203498  0.9932271822556832  0.9355158043448308
  0.9959517830792616  0.4933892122334783  0.9355089223822605
 
  0.00000000E+00  0.00000000E+00  0.00000000E+00
  0.00000000E+00  0.00000000E+00  0.00000000E+00
  0.00000000E+00  0.00000000E+00  0.00000000E+00
  0.00000000E+00  0.00000000E+00  0.00000000E+00
  0.00000000E+00  0.00000000E+00  0.00000000E+00
  0.00000000E+00  0.00000000E+00  0.00000000E+00
  0.00000000E+00  0.00000000E+00  0.00000000E+00
  0.00000000E+00  0.00000000E+00  0.00000000E+00
  0.00000000E+00  0.00000000E+00  0.00000000E+00
  0.00000000E+00  0.00000000E+00  0.00000000E+00
  0.00000000E+00  0.00000000E+00  0.00000000E+00
  0.00000000E+00  0.00000000E+00  0.00000000E+00
  0.00000000E+00  0.00000000E+00  0.00000000E+00
  0.00000000E+00  0.00000000E+00  0.00000000E+00
  0.00000000E+00  0.00000000E+00  0.00000000E+00
  0.00000000E+00  0.00000000E+00  0.00000000E+00
  0.00000000E+00  0.00000000E+00  0.00000000E+00
  0.00000000E+00  0.00000000E+00  0.00000000E+00
  0.00000000E+00  0.00000000E+00  0.00000000E+00
  0.00000000E+00  0.00000000E+00  0.00000000E+00
  0.00000000E+00  0.00000000E+00  0.00000000E+00
  0.00000000E+00  0.00000000E+00  0.00000000E+00
  0.00000000E+00  0.00000000E+00  0.00000000E+00
  0.00000000E+00  0.00000000E+00  0.00000000E+00
  0.00000000E+00  0.00000000E+00  0.00000000E+00
  0.00000000E+00  0.00000000E+00  0.00000000E+00
  0.00000000E+00  0.00000000E+00  0.00000000E+00
  0.00000000E+00  0.00000000E+00  0.00000000E+00
  0.00000000E+00  0.00000000E+00  0.00000000E+00
  0.00000000E+00  0.00000000E+00  0.00000000E+00
  0.00000000E+00  0.00000000E+00  0.00000000E+00
  0.00000000E+00  0.00000000E+00  0.00000000E+00
  0.00000000E+00  0.00000000E+00  0.00000000E+00
  0.00000000E+00  0.00000000E+00  0.00000000E+00
  0.00000000E+00  0.00000000E+00  0.00000000E+00
  0.00000000E+00  0.00000000E+00  0.00000000E+00
  0.00000000E+00  0.00000000E+00  0.00000000E+00
  0.00000000E+00  0.00000000E+00  0.00000000E+00
  0.00000000E+00  0.00000000E+00  0.00000000E+00
  0.00000000E+00  0.00000000E+00  0.00000000E+00
