XCrySDen XSF file                       
    1.000000000000000     
     3.9540000000000002    0.0000000000000000    0.0000000000000000
     0.0000000000000000    3.9540000000000002    0.0000000000000000
     0.0000000000000000    0.0000000000000000   16.0828295874284208
   Pb   Ti   O 
     4     4    12
Direct
  0.0030952827938969  0.9987807217664005  0.0237305159327754
  0.0012192782335996  0.0030952827938969  0.2737305159343884
  0.9969047172061033  0.0012192782335996  0.5237305159360013
  0.9987807217664005  0.9969047172061033  0.7737305159376071
  0.5026143179568402  0.5002793046014017  0.1386302406498226
  0.4997206953985983  0.5026143179568402  0.3886302406514355
  0.4973856820431595  0.4997206953985983  0.6386302406530413
  0.5002793046014017  0.4973856820431595  0.8886302406546542
  0.4986246288637647  0.4987890484701594 -0.0001161685466166
  0.4996774883896659  0.9984166106219179  0.1223989596060424
  0.9998937780077596  0.4981449435015950  0.1224030460295355
  0.5012109515298406  0.4986246288637647  0.2498838314549965
  0.5018550564984049  0.9998937780077596  0.3724030460311486
  0.0015833893780821  0.4996774883896659  0.3723989596076552
  0.5013753711362352  0.5012109515298406  0.4998838314566094
  0.5003225116103339  0.0015833893780821  0.6223989596092683
  0.0001062219922404  0.5018550564984049  0.6224030460327614
  0.4987890484701594  0.5013753711362352  0.7498838314582151
  0.4981449435015950  0.0001062219922404  0.8724030460343744
  0.9984166106219179  0.5003225116103339  0.8723989596108812
 
  0.00000000E+00  0.00000000E+00  0.00000000E+00
  0.00000000E+00  0.00000000E+00  0.00000000E+00
  0.00000000E+00  0.00000000E+00  0.00000000E+00
  0.00000000E+00  0.00000000E+00  0.00000000E+00
  0.00000000E+00  0.00000000E+00  0.00000000E+00
  0.00000000E+00  0.00000000E+00  0.00000000E+00
  0.00000000E+00  0.00000000E+00  0.00000000E+00
  0.00000000E+00  0.00000000E+00  0.00000000E+00
  0.00000000E+00  0.00000000E+00  0.00000000E+00
  0.00000000E+00  0.00000000E+00  0.00000000E+00
  0.00000000E+00  0.00000000E+00  0.00000000E+00
  0.00000000E+00  0.00000000E+00  0.00000000E+00
  0.00000000E+00  0.00000000E+00  0.00000000E+00
  0.00000000E+00  0.00000000E+00  0.00000000E+00
  0.00000000E+00  0.00000000E+00  0.00000000E+00
  0.00000000E+00  0.00000000E+00  0.00000000E+00
  0.00000000E+00  0.00000000E+00  0.00000000E+00
  0.00000000E+00  0.00000000E+00  0.00000000E+00
  0.00000000E+00  0.00000000E+00  0.00000000E+00
  0.00000000E+00  0.00000000E+00  0.00000000E+00
