XCrySDen XSF file                       
    1.000000000000000     
     3.9480000000000000    0.0000000000000000    0.0000000000000000
     0.0000000000000000    3.9480000000000000    0.0000000000000000
     0.0000000000000000    0.0000000000000000   16.1231369654864629
   Pb   Ti   O 
     4     4    12
Direct
  0.0039890249777830  0.9982544530167207  0.0239216402957227
  0.0017455469832793  0.0039890249777830  0.2739216402973356
  0.9960109750222240  0.0017455469832793  0.5239216402989485
  0.9982544530167207  0.9960109750222240  0.7739216403005543
  0.5035905815690249  0.5002536895963344  0.1388486199705228
  0.4997463104036657  0.5035905815690250  0.3888486199721359
  0.4964094184309752  0.4997463104036657  0.6388486199737414
  0.5002536895963344  0.4964094184309752  0.8888486199753544
  0.4984053535584045  0.4978814145162758 -0.0002682947821750
  0.5003956980769491  0.9977131589152164  0.1222880895533668
  0.0003332923141882  0.4970924219280078  0.1222565386341148
  0.5021185854837243  0.4984053535584045  0.2497317052194380
  0.5029075780719923  0.0003332923141882  0.3722565386357275
  0.0022868410847834  0.5003956980769491  0.3722880895549798
  0.5015946464415952  0.5021185854837243  0.4997317052210511
  0.4996043019230512  0.0022868410847834  0.6222880895565996
 -0.0003332923141881  0.5029075780719923  0.6222565386373410
  0.4978814145162758  0.5015946464415952  0.7497317052226564
  0.4970924219280078 -0.0003332923141881  0.8722565386389539
  0.9977131589152164  0.4996043019230512  0.8722880895582126
 
  0.00000000E+00  0.00000000E+00  0.00000000E+00
  0.00000000E+00  0.00000000E+00  0.00000000E+00
  0.00000000E+00  0.00000000E+00  0.00000000E+00
  0.00000000E+00  0.00000000E+00  0.00000000E+00
  0.00000000E+00  0.00000000E+00  0.00000000E+00
  0.00000000E+00  0.00000000E+00  0.00000000E+00
  0.00000000E+00  0.00000000E+00  0.00000000E+00
  0.00000000E+00  0.00000000E+00  0.00000000E+00
  0.00000000E+00  0.00000000E+00  0.00000000E+00
  0.00000000E+00  0.00000000E+00  0.00000000E+00
  0.00000000E+00  0.00000000E+00  0.00000000E+00
  0.00000000E+00  0.00000000E+00  0.00000000E+00
  0.00000000E+00  0.00000000E+00  0.00000000E+00
  0.00000000E+00  0.00000000E+00  0.00000000E+00
  0.00000000E+00  0.00000000E+00  0.00000000E+00
  0.00000000E+00  0.00000000E+00  0.00000000E+00
  0.00000000E+00  0.00000000E+00  0.00000000E+00
  0.00000000E+00  0.00000000E+00  0.00000000E+00
  0.00000000E+00  0.00000000E+00  0.00000000E+00
  0.00000000E+00  0.00000000E+00  0.00000000E+00
