XCrySDen XSF file                       
    1.000000000000000     
     3.9220000000000002    0.0000000000000000    0.0000000000000000
     0.0000000000000000    3.9220000000000002    0.0000000000000000
     0.0000000000000000    0.0000000000000000   20.3630904671506379
   Pb   Ti   O 
     5     5    15
Direct
 -0.0002685915318522 -0.0002685907322255  0.0204582518039007
  0.0006213857488909  0.0005197630370804  0.2204463351644929
 -0.0004255422034907  0.0013403502830312  0.4204592587602466
  0.9983091251308803  0.0012497978722330  0.6205164671026515
 -0.0013031331346878  0.0001857110666176  0.8204960974591107
  0.4995763609635637  0.4996181473428598  0.1127333988249254
  0.5004806547554226  0.4997974339760790  0.3127482029083540
  0.5000325874250987  0.5008549996925578  0.5127966843041902
  0.4994153075090230  0.5008617965207890  0.7127784744288032
  0.4989413748942707  0.5003701292313905  0.9127758791501230
  0.4987716579975908  0.4998732066312897  0.0004411658478317
  0.4987026448157831 -0.0010673999137263  0.0986336058423372
  0.9989408983097547  0.4986888228099011  0.0986790260002836
  0.4996259610566914  0.4982656463697016  0.2004314892395262
  0.5008188324581643 -0.0017039345543954  0.2986572736326501
  0.0006640046157604  0.4977496938754568  0.2986483269918324
  0.5015456461075198  0.4986700248062798  0.4004864283979214
  0.5023255350886793 -0.0002833494298959  0.4987089432471360
  0.0018011093961258  0.4994262653582291  0.4986675383255632
  0.5015332474850420  0.5005463706423593  0.6004863499118991
  0.5011210363657919  0.0011058827364091  0.6987347040537142
  0.0007991090525896  0.5013866976519217  0.6986737690312317
  0.5000218300626982  0.5009299616076371  0.8005090875196393
  0.4988920257634229  0.0007466807579618  0.8986985843276643
  0.9990569318672722  0.5011358923604570  0.8987232659882588
 
  0.00000000E+00  0.00000000E+00  0.00000000E+00
  0.00000000E+00  0.00000000E+00  0.00000000E+00
  0.00000000E+00  0.00000000E+00  0.00000000E+00
  0.00000000E+00  0.00000000E+00  0.00000000E+00
  0.00000000E+00  0.00000000E+00  0.00000000E+00
  0.00000000E+00  0.00000000E+00  0.00000000E+00
  0.00000000E+00  0.00000000E+00  0.00000000E+00
  0.00000000E+00  0.00000000E+00  0.00000000E+00
  0.00000000E+00  0.00000000E+00  0.00000000E+00
  0.00000000E+00  0.00000000E+00  0.00000000E+00
  0.00000000E+00  0.00000000E+00  0.00000000E+00
  0.00000000E+00  0.00000000E+00  0.00000000E+00
  0.00000000E+00  0.00000000E+00  0.00000000E+00
  0.00000000E+00  0.00000000E+00  0.00000000E+00
  0.00000000E+00  0.00000000E+00  0.00000000E+00
  0.00000000E+00  0.00000000E+00  0.00000000E+00
  0.00000000E+00  0.00000000E+00  0.00000000E+00
  0.00000000E+00  0.00000000E+00  0.00000000E+00
  0.00000000E+00  0.00000000E+00  0.00000000E+00
  0.00000000E+00  0.00000000E+00  0.00000000E+00
  0.00000000E+00  0.00000000E+00  0.00000000E+00
  0.00000000E+00  0.00000000E+00  0.00000000E+00
  0.00000000E+00  0.00000000E+00  0.00000000E+00
  0.00000000E+00  0.00000000E+00  0.00000000E+00
  0.00000000E+00  0.00000000E+00  0.00000000E+00
