XCrySDen XSF file                       
    1.000000000000000     
     3.9560000000000000    0.0000000000000000    0.0000000000000000
     0.0000000000000000    3.9560000000000000    0.0000000000000000
     0.0000000000000000    0.0000000000000000   27.9448185407629630
   Pb   Ti   O 
     7     7    21
Direct
  0.0265051993234522  0.0086161883013071  0.0131368516480815
  0.0095601109840586  0.0248508437066526  0.1559915037425784
  0.9865500641393227  0.0250343624580270  0.2988505080548520
  0.9735358493649036  0.0062385795645996  0.4417115288779419
  0.9774926973362968  0.9823195280055488  0.5845813649295279
 -0.0014223290841335  0.9720036129181879  0.7274409782447859
  0.0213367290256049  0.9853299701891517  0.8702970652244398
  0.5196021416196104  0.5082993005832768  0.0795493545478610
  0.5029824146945597  0.5190505529089603  0.2224034630801927
  0.4887778133559796  0.5181005459007442  0.3652605899189660
  0.4798848073008457  0.5003218218358554  0.5081211407935768
  0.4848629745588712  0.4854873232577639  0.6509838662801573
  0.5031607126403548  0.4788699788286879  0.7938373591062420
  0.5169981502357881  0.4930403484068344  0.9366792031049203
  0.4991508291282158  0.4830070748757760  0.0012757785306963
  0.5054135649198112  0.9879212037609477  0.0712041984505010
  0.0068888050393580  0.4844898713286668  0.0713096659144886
  0.5131504209164514  0.4892314374691757  0.1441413472344259
  0.5164127797920879  0.9978287155533747  0.2141361683705504
  0.0148102291508213  0.4946470634557645  0.2140654872392781
  0.5165940835143921  0.5020689521147148  0.2869846452249469
  0.5139277352345927  0.0087210913632501  0.3570237702722742
  0.0103444812722391  0.5077645022779824  0.3569311758161719
  0.5084210447287527  0.5143499701796755  0.4298523263713719
  0.5027850661486516  0.0146016152446206  0.4997721286098237
 -0.0001196495035105  0.5167709487852993  0.4998723488156508
  0.4952372198162272  0.5153142584603599  0.5727132400915566
  0.4900127064837456  0.0076604477886663  0.6426618304691810
 -0.0104067078430722  0.5113245334611737  0.6427356588371802
  0.4844479760237203  0.5042837839761175  0.7155699354985070
  0.4833260611486278 -0.0044564593842647  0.7856132447616428
  0.9861227398130109  0.4976593026455956  0.7854648659520241
  0.4866481174263736  0.4891134143928668  0.8584331541829641
  0.4918677836029849  0.9855587315171086  0.9283791833611541
  0.9951373776917056  0.4845765838673858  0.9284036767069831
 
  0.00000000E+00  0.00000000E+00  0.00000000E+00
  0.00000000E+00  0.00000000E+00  0.00000000E+00
  0.00000000E+00  0.00000000E+00  0.00000000E+00
  0.00000000E+00  0.00000000E+00  0.00000000E+00
  0.00000000E+00  0.00000000E+00  0.00000000E+00
  0.00000000E+00  0.00000000E+00  0.00000000E+00
  0.00000000E+00  0.00000000E+00  0.00000000E+00
  0.00000000E+00  0.00000000E+00  0.00000000E+00
  0.00000000E+00  0.00000000E+00  0.00000000E+00
  0.00000000E+00  0.00000000E+00  0.00000000E+00
  0.00000000E+00  0.00000000E+00  0.00000000E+00
  0.00000000E+00  0.00000000E+00  0.00000000E+00
  0.00000000E+00  0.00000000E+00  0.00000000E+00
  0.00000000E+00  0.00000000E+00  0.00000000E+00
  0.00000000E+00  0.00000000E+00  0.00000000E+00
  0.00000000E+00  0.00000000E+00  0.00000000E+00
  0.00000000E+00  0.00000000E+00  0.00000000E+00
  0.00000000E+00  0.00000000E+00  0.00000000E+00
  0.00000000E+00  0.00000000E+00  0.00000000E+00
  0.00000000E+00  0.00000000E+00  0.00000000E+00
  0.00000000E+00  0.00000000E+00  0.00000000E+00
  0.00000000E+00  0.00000000E+00  0.00000000E+00
  0.00000000E+00  0.00000000E+00  0.00000000E+00
  0.00000000E+00  0.00000000E+00  0.00000000E+00
  0.00000000E+00  0.00000000E+00  0.00000000E+00
  0.00000000E+00  0.00000000E+00  0.00000000E+00
  0.00000000E+00  0.00000000E+00  0.00000000E+00
  0.00000000E+00  0.00000000E+00  0.00000000E+00
  0.00000000E+00  0.00000000E+00  0.00000000E+00
  0.00000000E+00  0.00000000E+00  0.00000000E+00
  0.00000000E+00  0.00000000E+00  0.00000000E+00
  0.00000000E+00  0.00000000E+00  0.00000000E+00
  0.00000000E+00  0.00000000E+00  0.00000000E+00
  0.00000000E+00  0.00000000E+00  0.00000000E+00
  0.00000000E+00  0.00000000E+00  0.00000000E+00
