XCrySDen XSF file                       
   1.00000000000000     
     3.9399999999999999    0.0000000000000000    0.0000000000000000
     0.0000000000000000    3.9399999999999999    0.0000000000000000
     0.0000000000000000    0.0000000000000000   16.1534778931328056
   Pb   Ti   O 
     4     4    12
Direct
  0.0025687695958719 -0.0001270896242195  0.0239410065292678
  0.0001270896242198  0.0025687695958719  0.2739410065308808
  0.9974312304041277  0.0001270896242198  0.5239410065324939
 -0.0001270896242195  0.9974312304041277  0.7739410065340997
  0.5016553961422058  0.5005723555332710  0.1389982104448797
  0.4994276444667295  0.5016553961422058  0.3889982104464928
  0.4983446038577942  0.4994276444667295  0.6389982104480985
  0.5005723555332710  0.4983446038577942  0.8889982104497114
  0.5003053358901095  0.4988205955671283 -0.0003231397532837
  0.5012285734056293 -0.0006789259484305  0.1222124924457013
  0.0011921418011537  0.4992061119972928  0.1222180240049870
  0.5011794044328716  0.5003053358901095  0.2496768602483290
  0.5007938880027076  0.0011921418011537  0.3722180240065999
  0.0006789259484305  0.5012285734056293  0.3722124924473141
  0.4996946641098907  0.5011794044328716  0.4996768602499427
  0.4987714265943707  0.0006789259484305  0.6222124924489268
 -0.0011921418011537  0.5007938880027076  0.6222180240082132
  0.4988205955671283  0.4996946641098907  0.7496768602515484
  0.4992061119972928 -0.0011921418011537  0.8722180240098262
 -0.0006789259484305  0.4987714265943707  0.8722124924505398
 
  0.00000000E+00  0.00000000E+00  0.00000000E+00
  0.00000000E+00  0.00000000E+00  0.00000000E+00
  0.00000000E+00  0.00000000E+00  0.00000000E+00
  0.00000000E+00  0.00000000E+00  0.00000000E+00
  0.00000000E+00  0.00000000E+00  0.00000000E+00
  0.00000000E+00  0.00000000E+00  0.00000000E+00
  0.00000000E+00  0.00000000E+00  0.00000000E+00
  0.00000000E+00  0.00000000E+00  0.00000000E+00
  0.00000000E+00  0.00000000E+00  0.00000000E+00
  0.00000000E+00  0.00000000E+00  0.00000000E+00
  0.00000000E+00  0.00000000E+00  0.00000000E+00
  0.00000000E+00  0.00000000E+00  0.00000000E+00
  0.00000000E+00  0.00000000E+00  0.00000000E+00
  0.00000000E+00  0.00000000E+00  0.00000000E+00
  0.00000000E+00  0.00000000E+00  0.00000000E+00
  0.00000000E+00  0.00000000E+00  0.00000000E+00
  0.00000000E+00  0.00000000E+00  0.00000000E+00
  0.00000000E+00  0.00000000E+00  0.00000000E+00
  0.00000000E+00  0.00000000E+00  0.00000000E+00
  0.00000000E+00  0.00000000E+00  0.00000000E+00
