XCrySDen XSF file                       
    1.000000000000000     
     3.9359999999999999    0.0000000000000000    0.0000000000000000
     0.0000000000000000    3.9359999999999999    0.0000000000000000
     0.0000000000000000    0.0000000000000000   16.1852675761548497
   Pb   Ti   O 
     4     4    12
Direct
  0.0027439123367481  0.9987749882800276  0.0239084578754027
  0.0012250117199723  0.0027439123367481  0.2739084578770157
  0.9972560876632519  0.0012250117199723  0.5239084578786286
  0.9987749882800276  0.9972560876632519  0.7739084578802344
  0.5019964152012180  0.4998894181069456  0.1391561214083132
  0.5001105818930545  0.5019964152012180  0.3891561214099260
  0.4980035847987820  0.5001105818930545  0.6391561214115318
  0.4998894181069456  0.4980035847987820  0.8891561214131447
  0.4989793705106353  0.4987645253638566 -0.0004299646288703
  0.4999757813460216  0.9985512017515760  0.1222041116293929
  0.0002349672978867  0.4982662332450286  0.1222078673873279
  0.5012354746361435  0.4989793705106353  0.2495700353727427
  0.5017337667549714  0.0002349672978867  0.3722078673889407
  0.0014487982484239  0.4999757813460216  0.3722041116310059
  0.5010206294893648  0.5012354746361435  0.4995700353743556
  0.5000242186539785  0.0014487982484239  0.6222041116326189
  0.9997650327021134  0.5017337667549714  0.6222078673905540
  0.4987645253638566  0.5010206294893648  0.7495700353759616
  0.4982662332450286  0.9997650327021134  0.8722078673921669
  0.9985512017515760  0.5000242186539785  0.8722041116342318
 
  0.00000000E+00  0.00000000E+00  0.00000000E+00
  0.00000000E+00  0.00000000E+00  0.00000000E+00
  0.00000000E+00  0.00000000E+00  0.00000000E+00
  0.00000000E+00  0.00000000E+00  0.00000000E+00
  0.00000000E+00  0.00000000E+00  0.00000000E+00
  0.00000000E+00  0.00000000E+00  0.00000000E+00
  0.00000000E+00  0.00000000E+00  0.00000000E+00
  0.00000000E+00  0.00000000E+00  0.00000000E+00
  0.00000000E+00  0.00000000E+00  0.00000000E+00
  0.00000000E+00  0.00000000E+00  0.00000000E+00
  0.00000000E+00  0.00000000E+00  0.00000000E+00
  0.00000000E+00  0.00000000E+00  0.00000000E+00
  0.00000000E+00  0.00000000E+00  0.00000000E+00
  0.00000000E+00  0.00000000E+00  0.00000000E+00
  0.00000000E+00  0.00000000E+00  0.00000000E+00
  0.00000000E+00  0.00000000E+00  0.00000000E+00
  0.00000000E+00  0.00000000E+00  0.00000000E+00
  0.00000000E+00  0.00000000E+00  0.00000000E+00
  0.00000000E+00  0.00000000E+00  0.00000000E+00
  0.00000000E+00  0.00000000E+00  0.00000000E+00
