XCrySDen XSF file                       
    1.000000000000000     
     3.9500000000000002    0.0000000000000000    0.0000000000000000
     0.0000000000000000    3.9500000000000002    0.0000000000000000
     0.0000000000000000    0.0000000000000000   20.1046540320888276
   Pb   Ti   O 
     5     5    15
Direct
  0.0074108067262617 -0.0047392861713613  0.0198774566502664
  0.0067476706752271  0.0050222762815262  0.2198809744728973
  0.9962067222020637  0.0097599571897827  0.4198508557031795
  0.9889414516798793  0.0010413553455704  0.6198773713335934
 -0.0028359239789882  0.9914736603976807  0.8198733386879847
  0.5066500958734477  0.4981746453371900  0.1119666651969198
  0.5037355572049166  0.5057262163365858  0.3119623389348730
  0.4949260173323218  0.5067353349438755  0.5119853867907617
  0.4919402277125890  0.4981217479995974  0.7120344646759402
  0.5005628678840437  0.4931128546155901  0.9120352243556018
  0.4958537781823112  0.4976899810650846  0.0010801833902951
  0.4975604502370494  0.9963637850850723  0.0990544764926409
 -0.0013660346730832  0.4959983757199867  0.0990814844653435
  0.5011225854635154  0.4949162626084121  0.2010748988247115
  0.5034923774040906 -0.0032761269164410  0.2990397650681125
  0.0033842860810603  0.4954812616420127  0.2990160556603703
  0.5056798841979141  0.4981201513424704  0.4010115816035667
  0.5055162276250041  0.0014145200526950  0.4990557777571119
  0.0041901430207428  0.5009988182394588  0.4990754698363261
  0.5031171393730615  0.5040878175019452  0.6010620278629740
  0.5002390689839443  0.0038375950157833  0.6991347234112553
  0.9993397107093160  0.5045055412293633  0.6990901571002553
  0.4963271972110435  0.5035005468433223  0.8010788141906124
  0.4953303149624170  0.0005155954211704  0.8991023731737942
  0.9959273779098567  0.5014171128736273  0.8990867426249020
 
  0.00000000E+00  0.00000000E+00  0.00000000E+00
  0.00000000E+00  0.00000000E+00  0.00000000E+00
  0.00000000E+00  0.00000000E+00  0.00000000E+00
  0.00000000E+00  0.00000000E+00  0.00000000E+00
  0.00000000E+00  0.00000000E+00  0.00000000E+00
  0.00000000E+00  0.00000000E+00  0.00000000E+00
  0.00000000E+00  0.00000000E+00  0.00000000E+00
  0.00000000E+00  0.00000000E+00  0.00000000E+00
  0.00000000E+00  0.00000000E+00  0.00000000E+00
  0.00000000E+00  0.00000000E+00  0.00000000E+00
  0.00000000E+00  0.00000000E+00  0.00000000E+00
  0.00000000E+00  0.00000000E+00  0.00000000E+00
  0.00000000E+00  0.00000000E+00  0.00000000E+00
  0.00000000E+00  0.00000000E+00  0.00000000E+00
  0.00000000E+00  0.00000000E+00  0.00000000E+00
  0.00000000E+00  0.00000000E+00  0.00000000E+00
  0.00000000E+00  0.00000000E+00  0.00000000E+00
  0.00000000E+00  0.00000000E+00  0.00000000E+00
  0.00000000E+00  0.00000000E+00  0.00000000E+00
  0.00000000E+00  0.00000000E+00  0.00000000E+00
  0.00000000E+00  0.00000000E+00  0.00000000E+00
  0.00000000E+00  0.00000000E+00  0.00000000E+00
  0.00000000E+00  0.00000000E+00  0.00000000E+00
  0.00000000E+00  0.00000000E+00  0.00000000E+00
  0.00000000E+00  0.00000000E+00  0.00000000E+00
