XCrySDen XSF file                       
    1.000000000000000     
     3.9340000000000002    0.0000000000000000    0.0000000000000000
     0.0000000000000000    3.9340000000000002    0.0000000000000000
     0.0000000000000000    0.0000000000000000   32.3775002574201380
   Pb   Ti   O 
     8     8    24
Direct
  0.0129556113012499  0.9943509208277395  0.0112069242644992
  0.0130738431663640  0.0051640354112200  0.1362067142698472
  0.0056490791722605  0.0129556113012499  0.2612069172644809
  0.9948359445887927  0.0130738431663640  0.3862067142698473
  0.9870444036987621  0.0056490791722605  0.5112069172645591
  0.9869261368336273  0.9948359445887927  0.6362067142698187
  0.9943509208277395  0.9870444036987621  0.7612069172645591
  0.0051640354112200  0.9869261368336273  0.8862067142698187
  0.5114439089594968  0.4962473386913026  0.0688809442956992
  0.5106858627866951  0.5054182246743394  0.1938776456136633
  0.5037526613086548  0.5114439089594968  0.3188809592956969
  0.4945817453256513  0.5106858627866951  0.4438776606136540
  0.4885560910404890  0.5037526613086548  0.5688809292956659
  0.4893141072132248  0.4945817453256513  0.6938776306136730
  0.4962473386913026  0.4885560910404890  0.8188809292956659
  0.5054182246743394  0.4893141072132248  0.9438776306136730
  0.5003791743171553  0.4890907047373927  0.9991333629490187
  0.5039138056559611  0.9906707115281559  0.0604443626719185
  0.0051713618070348  0.4891634925645065  0.0604625562997175
  0.5079895549604723  0.4924993392916394  0.1241292482492455
  0.5103615545883973  0.9970209257875164  0.1854467200560458
  0.0101964302217917  0.4950301203389925  0.1854627663303949
  0.5109092952626074  0.5003791743171553  0.2491333629490184
  0.5108365074354083  0.0051713618070348  0.3104625412997408
  0.0093292884718443  0.5039138056559611  0.3104443476719065
  0.5075006607083250  0.5079895549604723  0.3741292482492311
  0.5049698796610071  0.0101964302217917  0.4354627513303687
  0.0029790742124838  0.5103615545883973  0.4354467050560411
  0.4996208256828306  0.5109092952626074  0.4991333629490182
  0.4960861943439964  0.0093292884718443  0.5604443476719282
  0.9948286381929652  0.5108365074354083  0.5604625412996487
  0.4920104450394709  0.5075006607083250  0.6241292482492030
  0.4896384454116455  0.0029790742124838  0.6854467050560906
  0.9898035697782082  0.5049698796610071  0.6854627513303689
  0.4890907047373927  0.4996208256828306  0.7491333629490116
  0.4891634925645065  0.9948286381929652  0.8104625412996487
  0.9906707115281559  0.4960861943439964  0.8104443476719282
  0.4924993392916394  0.4920104450394709  0.8741292482492030
  0.4950301203389925  0.9898035697782082  0.9354627513303689
  0.9970209257875164  0.4896384454116455  0.9354467050560906
 
  0.00000000E+00  0.00000000E+00  0.00000000E+00
  0.00000000E+00  0.00000000E+00  0.00000000E+00
  0.00000000E+00  0.00000000E+00  0.00000000E+00
  0.00000000E+00  0.00000000E+00  0.00000000E+00
  0.00000000E+00  0.00000000E+00  0.00000000E+00
  0.00000000E+00  0.00000000E+00  0.00000000E+00
  0.00000000E+00  0.00000000E+00  0.00000000E+00
  0.00000000E+00  0.00000000E+00  0.00000000E+00
  0.00000000E+00  0.00000000E+00  0.00000000E+00
  0.00000000E+00  0.00000000E+00  0.00000000E+00
  0.00000000E+00  0.00000000E+00  0.00000000E+00
  0.00000000E+00  0.00000000E+00  0.00000000E+00
  0.00000000E+00  0.00000000E+00  0.00000000E+00
  0.00000000E+00  0.00000000E+00  0.00000000E+00
  0.00000000E+00  0.00000000E+00  0.00000000E+00
  0.00000000E+00  0.00000000E+00  0.00000000E+00
  0.00000000E+00  0.00000000E+00  0.00000000E+00
  0.00000000E+00  0.00000000E+00  0.00000000E+00
  0.00000000E+00  0.00000000E+00  0.00000000E+00
  0.00000000E+00  0.00000000E+00  0.00000000E+00
  0.00000000E+00  0.00000000E+00  0.00000000E+00
  0.00000000E+00  0.00000000E+00  0.00000000E+00
  0.00000000E+00  0.00000000E+00  0.00000000E+00
  0.00000000E+00  0.00000000E+00  0.00000000E+00
  0.00000000E+00  0.00000000E+00  0.00000000E+00
  0.00000000E+00  0.00000000E+00  0.00000000E+00
  0.00000000E+00  0.00000000E+00  0.00000000E+00
  0.00000000E+00  0.00000000E+00  0.00000000E+00
  0.00000000E+00  0.00000000E+00  0.00000000E+00
  0.00000000E+00  0.00000000E+00  0.00000000E+00
  0.00000000E+00  0.00000000E+00  0.00000000E+00
  0.00000000E+00  0.00000000E+00  0.00000000E+00
  0.00000000E+00  0.00000000E+00  0.00000000E+00
  0.00000000E+00  0.00000000E+00  0.00000000E+00
  0.00000000E+00  0.00000000E+00  0.00000000E+00
  0.00000000E+00  0.00000000E+00  0.00000000E+00
  0.00000000E+00  0.00000000E+00  0.00000000E+00
  0.00000000E+00  0.00000000E+00  0.00000000E+00
  0.00000000E+00  0.00000000E+00  0.00000000E+00
  0.00000000E+00  0.00000000E+00  0.00000000E+00
