XCrySDen XSF file                       
    1.000000000000000     
     3.8999999999999999    0.0000000000000000    0.0000000000000000
     0.0000000000000000    3.8999999999999999    0.0000000000000000
     0.0000000000000000    0.0000000000000000   61.7130800241155200
   Pb   Ti   O 
    15    15    45
Direct
  0.0115259695465460  0.9847520965009264  0.0068906050689482
  0.0168805962037526  0.9904043386579423  0.0735522465182883
  0.0193993470670470 -0.0020579458625877  0.1402173500229391
  0.0184971548114672  0.0064977772446052  0.2068810594100859
  0.0144686693249381  0.0140238003604643  0.2735542856448549
  0.0077121841100602  0.0189538461314127  0.3402225728222815
  0.9993246383970503  0.0202014557673092  0.4068912250394155
  0.9910153823973095  0.0175105859020569  0.4735569249846397
  0.9847910819911626  0.0119553467016395  0.5402214631225433
  0.9814922422803483  0.0048041067948229  0.6068908741944632
  0.9811805523602646  0.9969765910805298  0.6735605088279625
  0.9838174749641307  0.9896162307001195  0.7402280720939906
  0.9891445422823381  0.9839750247518162  0.8068852456913945
 -0.0037224683254265  0.9811867245115262  0.8735516109710860
  0.0042832045104573  0.9815814164059917  0.9402184297653032
  0.5123026039740405  0.4857286538807851  0.0377303886099668
  0.5172734252461868  0.4916133333203584  0.1043916974100853
  0.5192052191919531  0.4992220172239167  0.1710572291441795
  0.5178437657708861  0.5075003240251265  0.2377254411585986
  0.5132853957934248  0.5147005741497739  0.3043963601623193
  0.5063951625526966  0.5190885508659679  0.3710656963831970
  0.4981439238639928  0.5196265304848585  0.4377324644090876
  0.4901846060539191  0.5164545615510157  0.5043963604619472
  0.4843923335947362  0.5107374250074124  0.5710635920705236
  0.4815205239664057  0.5036205068478212  0.6377346504663877
  0.4816867670675197  0.4959418303261875  0.7044021415963054
  0.4847477174340897  0.4887906635472706  0.7710660654270511
  0.4902910179630786  0.4835845297155648  0.8377256905090982
  0.4974861311527144  0.4812999682665320  0.9043932488111278
  0.5052759847424843  0.4820989277717064  0.9710626407441862
  0.5051421542762028  0.4821151931411512 -0.0000427606705753
  0.5082544317522586  0.9838503470982236  0.0327543914736491
  0.0094132583043421  0.4829596076645347  0.0327620094714062
  0.5121175088632181  0.4856557807982537  0.0666247714047718
  0.5146473128866431  0.9887989029755226  0.0994231646882146
  0.0153554311113622  0.4875093428714606  0.0994263391297304
  0.5171404704669457  0.4915181934638374  0.1332854240014749
  0.5186572000753255  0.9957722967083510  0.1660895772484021
  0.0187159418853092  0.4942350479915221  0.1660816742947585
  0.5191290018565407  0.4991430185159371  0.1999524698694920
  0.5192945804808105  0.0039930850004674  0.2327598649573035
  0.0187754154883523  0.5025253509727862  0.2327494383677907
  0.5178240134073991  0.5073600488619816  0.2666200817814390
  0.5166732593220095  0.0117813676724841  0.2994259466640362
  0.0155860142622727  0.5106305833373365  0.2994206594751215
  0.5133682349948500  0.5145468121727470  0.3332909640775961
  0.5110966014312286  0.0175182565031197  0.3660956583051329
  0.0096233919788483  0.5170182496396680  0.3660963912065753
  0.5064730783916176  0.5189065954862750  0.3999605664784824
  0.5033119143730140  0.0197576138276805  0.4327571880529048
  0.0017440696163462  0.5199864326387382  0.4327685152408199
  0.4982019384094411  0.5195404596101670  0.4666281748198126
  0.4947499546085933  0.0181626576228400  0.4994215719702673
  0.9934450043635545  0.5190293298839385  0.4994295697125314
  0.4904164937632260  0.5164763205099512  0.5332904550959390
  0.4875667475332007  0.0134063218326659  0.5660919298574850
  0.9867057375779383  0.5146312813752923  0.5660919947704389
  0.4845616664269137  0.5108092523106544  0.5999576915411629
  0.4827455743208613  0.0067902122345151  0.6327670081049893
  0.9824816380063061  0.5081958956099355  0.6327598103132465
  0.4816360184421810  0.5037044419514345  0.6666299065688286
  0.4810057849053165 -0.0007636200331095  0.6994384701049252
  0.9812937108496333  0.5006478372404813  0.6994268255959087
  0.4816884577058175  0.4960375389316579  0.7332964542777417
  0.4822805300940757  0.9917291225985323  0.7660987049928002
  0.9830892900026599  0.4929205624501582  0.7660904551491178
  0.4846966704999452  0.4889925447994618  0.7999593768055113
  0.4864259161650054  0.9856248696506101  0.8327581550965714
  0.9876459444049575  0.4863849868222924  0.8327552809001387
  0.4902171496305117  0.4837207783992545  0.8666187738921034
  0.4928076178194393  0.9819680863233685  0.8994168753181857
  0.9942469126839272  0.4821082681501484  0.8994244385610557
  0.4974002785524465  0.4813981460193200  0.9332869356693339
  0.5005509354323898  0.9814497795526529  0.9660859274923782
  0.0019515922871738  0.4810630061788176  0.9660972395123474
 
  0.00000000E+00  0.00000000E+00  0.00000000E+00
  0.00000000E+00  0.00000000E+00  0.00000000E+00
  0.00000000E+00  0.00000000E+00  0.00000000E+00
  0.00000000E+00  0.00000000E+00  0.00000000E+00
  0.00000000E+00  0.00000000E+00  0.00000000E+00
  0.00000000E+00  0.00000000E+00  0.00000000E+00
  0.00000000E+00  0.00000000E+00  0.00000000E+00
  0.00000000E+00  0.00000000E+00  0.00000000E+00
  0.00000000E+00  0.00000000E+00  0.00000000E+00
  0.00000000E+00  0.00000000E+00  0.00000000E+00
  0.00000000E+00  0.00000000E+00  0.00000000E+00
  0.00000000E+00  0.00000000E+00  0.00000000E+00
  0.00000000E+00  0.00000000E+00  0.00000000E+00
  0.00000000E+00  0.00000000E+00  0.00000000E+00
  0.00000000E+00  0.00000000E+00  0.00000000E+00
  0.00000000E+00  0.00000000E+00  0.00000000E+00
  0.00000000E+00  0.00000000E+00  0.00000000E+00
  0.00000000E+00  0.00000000E+00  0.00000000E+00
  0.00000000E+00  0.00000000E+00  0.00000000E+00
  0.00000000E+00  0.00000000E+00  0.00000000E+00
  0.00000000E+00  0.00000000E+00  0.00000000E+00
  0.00000000E+00  0.00000000E+00  0.00000000E+00
  0.00000000E+00  0.00000000E+00  0.00000000E+00
  0.00000000E+00  0.00000000E+00  0.00000000E+00
  0.00000000E+00  0.00000000E+00  0.00000000E+00
  0.00000000E+00  0.00000000E+00  0.00000000E+00
  0.00000000E+00  0.00000000E+00  0.00000000E+00
  0.00000000E+00  0.00000000E+00  0.00000000E+00
  0.00000000E+00  0.00000000E+00  0.00000000E+00
  0.00000000E+00  0.00000000E+00  0.00000000E+00
  0.00000000E+00  0.00000000E+00  0.00000000E+00
  0.00000000E+00  0.00000000E+00  0.00000000E+00
  0.00000000E+00  0.00000000E+00  0.00000000E+00
  0.00000000E+00  0.00000000E+00  0.00000000E+00
  0.00000000E+00  0.00000000E+00  0.00000000E+00
  0.00000000E+00  0.00000000E+00  0.00000000E+00
  0.00000000E+00  0.00000000E+00  0.00000000E+00
  0.00000000E+00  0.00000000E+00  0.00000000E+00
  0.00000000E+00  0.00000000E+00  0.00000000E+00
  0.00000000E+00  0.00000000E+00  0.00000000E+00
  0.00000000E+00  0.00000000E+00  0.00000000E+00
  0.00000000E+00  0.00000000E+00  0.00000000E+00
  0.00000000E+00  0.00000000E+00  0.00000000E+00
  0.00000000E+00  0.00000000E+00  0.00000000E+00
  0.00000000E+00  0.00000000E+00  0.00000000E+00
  0.00000000E+00  0.00000000E+00  0.00000000E+00
  0.00000000E+00  0.00000000E+00  0.00000000E+00
  0.00000000E+00  0.00000000E+00  0.00000000E+00
  0.00000000E+00  0.00000000E+00  0.00000000E+00
  0.00000000E+00  0.00000000E+00  0.00000000E+00
  0.00000000E+00  0.00000000E+00  0.00000000E+00
  0.00000000E+00  0.00000000E+00  0.00000000E+00
  0.00000000E+00  0.00000000E+00  0.00000000E+00
  0.00000000E+00  0.00000000E+00  0.00000000E+00
  0.00000000E+00  0.00000000E+00  0.00000000E+00
  0.00000000E+00  0.00000000E+00  0.00000000E+00
  0.00000000E+00  0.00000000E+00  0.00000000E+00
  0.00000000E+00  0.00000000E+00  0.00000000E+00
  0.00000000E+00  0.00000000E+00  0.00000000E+00
  0.00000000E+00  0.00000000E+00  0.00000000E+00
  0.00000000E+00  0.00000000E+00  0.00000000E+00
  0.00000000E+00  0.00000000E+00  0.00000000E+00
  0.00000000E+00  0.00000000E+00  0.00000000E+00
  0.00000000E+00  0.00000000E+00  0.00000000E+00
  0.00000000E+00  0.00000000E+00  0.00000000E+00
  0.00000000E+00  0.00000000E+00  0.00000000E+00
  0.00000000E+00  0.00000000E+00  0.00000000E+00
  0.00000000E+00  0.00000000E+00  0.00000000E+00
  0.00000000E+00  0.00000000E+00  0.00000000E+00
  0.00000000E+00  0.00000000E+00  0.00000000E+00
  0.00000000E+00  0.00000000E+00  0.00000000E+00
  0.00000000E+00  0.00000000E+00  0.00000000E+00
  0.00000000E+00  0.00000000E+00  0.00000000E+00
  0.00000000E+00  0.00000000E+00  0.00000000E+00
  0.00000000E+00  0.00000000E+00  0.00000000E+00
