XCrySDen XSF file                       
    1.000000000000000     
     3.9380000000000002    0.0000000000000000    0.0000000000000000
     0.0000000000000000    3.9380000000000002    0.0000000000000000
     0.0000000000000000    0.0000000000000000   12.1128593797606339
   Pb   Ti   O 
     3     3     9
Direct
  0.0019436860299180  0.0032050512964091  0.0252554859899296
  0.0030910794888411  0.0033916073712841  0.3585352624658328
  0.0013816624380931  0.0045864550576948  0.6918663435901912
  0.5013039188777939  0.5020998364673442  0.1789799246778800
  0.5016168213368128  0.5023074923131551  0.5123302915742219
  0.5012997195860528  0.5026764940628314  0.8456425175685607
  0.4991228827097103  0.4984234440850795 -0.0066515028234828
  0.4983491509461713 -0.0011931084151235  0.1567855126640621
 -0.0011651621024692  0.4985647420689585  0.1568061874771725
  0.4980118259340612  0.4976377910608665  0.3267042508966156
  0.4981851581958298 -0.0020052153161537  0.4901871757962550
 -0.0011974064297759  0.4970823792108682  0.4901996645682980
  0.4992864602681523  0.4976178716249866  0.6600403830020283
  0.4992933437456084 -0.0019019188843949  0.8235632357667551
 -0.0005231410501938  0.4975070779961945  0.8235255728949976
 
  0.00000000E+00  0.00000000E+00  0.00000000E+00
  0.00000000E+00  0.00000000E+00  0.00000000E+00
  0.00000000E+00  0.00000000E+00  0.00000000E+00
  0.00000000E+00  0.00000000E+00  0.00000000E+00
  0.00000000E+00  0.00000000E+00  0.00000000E+00
  0.00000000E+00  0.00000000E+00  0.00000000E+00
  0.00000000E+00  0.00000000E+00  0.00000000E+00
  0.00000000E+00  0.00000000E+00  0.00000000E+00
  0.00000000E+00  0.00000000E+00  0.00000000E+00
  0.00000000E+00  0.00000000E+00  0.00000000E+00
  0.00000000E+00  0.00000000E+00  0.00000000E+00
  0.00000000E+00  0.00000000E+00  0.00000000E+00
  0.00000000E+00  0.00000000E+00  0.00000000E+00
  0.00000000E+00  0.00000000E+00  0.00000000E+00
  0.00000000E+00  0.00000000E+00  0.00000000E+00
