XCrySDen XSF file                       
    1.000000000000000     
     3.9480000000000000    0.0000000000000000    0.0000000000000000
     0.0000000000000000    3.9480000000000000    0.0000000000000000
     0.0000000000000000    0.0000000000000000   39.9905915171361528
   Pb   Ti   O 
    10    10    30
Direct
  0.0363897005092817  0.9846835473676988  0.0079847393763454
  0.0371720985933488  0.0086325154616772  0.1079905083946880
  0.0236111700951659  0.0284245628569337  0.2079926163256719
  0.0010098064477243  0.0373366320687803  0.3079719052723575
  0.9789161140465572  0.0325194843091570  0.4079952502593013
  0.9636103144903679  0.0153164526328056  0.5079847233761096
  0.9628278714066700  0.9913674995380931  0.6079905153938537
  0.9763888529057988  0.9715754411442816  0.7079925863266144
  0.9989902165527287  0.9626633719319234  0.8079719052722083
  0.0210838559523816  0.9674805306908761  0.9079952792582414
  0.5283525185419536  0.4899030582023589  0.0546213413998255
  0.5296851777043823  0.5067547007614530  0.1546178845389339
  0.5166324523333875  0.5215389059407990  0.2546148200061525
  0.4996841810471259  0.5294715316254766  0.3546178544647742
  0.4836922791982898  0.5253822583818880  0.4546218634638509
  0.4716474814574779  0.5100969417961775  0.5546213374004718
  0.4703148512957303  0.4932452992387032  0.6546178995394715
  0.4833675176667521  0.4784610940590944  0.7546148200051079
  0.5003157889545201  0.4705284683743103  0.8546178544651793
  0.5163077498013752  0.4746177416166554  0.9546218334648858
  0.4956858740816616  0.4764729373939993  0.9998292612367379
  0.5021883460364093  0.9770058919156781  0.0488175733523216
  0.0062956823464514  0.4745821896283363  0.0488505950098854
  0.5100449515989178  0.4770138268726874  0.0998290863850710
  0.5150728563212648  0.9846633069575182  0.1487741610855378
  0.0168901175501968  0.4799214368023678  0.1488946042287857
  0.5208402237216270  0.4870934971353644  0.1998262752622583
  0.5234400265885957  0.9977256934761244  0.2488127844568564
  0.0224342424516295  0.4928460299788702  0.2488560742443556
  0.5234982527666814  0.5011208934253636  0.2998195148412566
  0.5221826484906636  0.0104439280012590  0.3488693983588453
  0.0184241337773402  0.5071175677765576  0.3487824373383088
  0.5169802007532681  0.5146834590798377  0.3998251153109888
  0.5126256578345262  0.0197733916291523  0.4488967724330355
  0.0074555850699802  0.5190454088133247  0.4487900869535650
  0.5043141259180400  0.5235270626044305  0.4998292612372708
  0.4978116539635198  0.0229941080845280  0.5488175623524237
  0.9937043176540956  0.5254178103733477  0.5488505840096323
  0.4899550484005918  0.5229861731262965  0.5998291093865047
  0.4849271436804974  0.0153366930430715  0.6487741750871661
  0.9831098824487658  0.5200785631965024  0.6488946182284671
  0.4791597762772360  0.5129065028638328  0.6998262602613937
  0.4765599734115109  0.0022743065239680  0.7488127554561754
  0.9775657575483847  0.5071539700187849  0.7488560452437102
  0.4765017472313148  0.4988791065749988  0.7998195148393169
  0.4778173515094644  0.9895560719982579  0.8488693983607000
  0.9815758662237752  0.4928824322253467  0.8487824373397440
  0.4830197992454386  0.4853165409202404  0.8998250853120165
  0.4873743421650050  0.9802266083715441  0.9488968014347893
  0.9925444149302615  0.4809545911866825  0.9487901159535497
 
  0.00000000E+00  0.00000000E+00  0.00000000E+00
  0.00000000E+00  0.00000000E+00  0.00000000E+00
  0.00000000E+00  0.00000000E+00  0.00000000E+00
  0.00000000E+00  0.00000000E+00  0.00000000E+00
  0.00000000E+00  0.00000000E+00  0.00000000E+00
  0.00000000E+00  0.00000000E+00  0.00000000E+00
  0.00000000E+00  0.00000000E+00  0.00000000E+00
  0.00000000E+00  0.00000000E+00  0.00000000E+00
  0.00000000E+00  0.00000000E+00  0.00000000E+00
  0.00000000E+00  0.00000000E+00  0.00000000E+00
  0.00000000E+00  0.00000000E+00  0.00000000E+00
  0.00000000E+00  0.00000000E+00  0.00000000E+00
  0.00000000E+00  0.00000000E+00  0.00000000E+00
  0.00000000E+00  0.00000000E+00  0.00000000E+00
  0.00000000E+00  0.00000000E+00  0.00000000E+00
  0.00000000E+00  0.00000000E+00  0.00000000E+00
  0.00000000E+00  0.00000000E+00  0.00000000E+00
  0.00000000E+00  0.00000000E+00  0.00000000E+00
  0.00000000E+00  0.00000000E+00  0.00000000E+00
  0.00000000E+00  0.00000000E+00  0.00000000E+00
  0.00000000E+00  0.00000000E+00  0.00000000E+00
  0.00000000E+00  0.00000000E+00  0.00000000E+00
  0.00000000E+00  0.00000000E+00  0.00000000E+00
  0.00000000E+00  0.00000000E+00  0.00000000E+00
  0.00000000E+00  0.00000000E+00  0.00000000E+00
  0.00000000E+00  0.00000000E+00  0.00000000E+00
  0.00000000E+00  0.00000000E+00  0.00000000E+00
  0.00000000E+00  0.00000000E+00  0.00000000E+00
  0.00000000E+00  0.00000000E+00  0.00000000E+00
  0.00000000E+00  0.00000000E+00  0.00000000E+00
  0.00000000E+00  0.00000000E+00  0.00000000E+00
  0.00000000E+00  0.00000000E+00  0.00000000E+00
  0.00000000E+00  0.00000000E+00  0.00000000E+00
  0.00000000E+00  0.00000000E+00  0.00000000E+00
  0.00000000E+00  0.00000000E+00  0.00000000E+00
  0.00000000E+00  0.00000000E+00  0.00000000E+00
  0.00000000E+00  0.00000000E+00  0.00000000E+00
  0.00000000E+00  0.00000000E+00  0.00000000E+00
  0.00000000E+00  0.00000000E+00  0.00000000E+00
  0.00000000E+00  0.00000000E+00  0.00000000E+00
  0.00000000E+00  0.00000000E+00  0.00000000E+00
  0.00000000E+00  0.00000000E+00  0.00000000E+00
  0.00000000E+00  0.00000000E+00  0.00000000E+00
  0.00000000E+00  0.00000000E+00  0.00000000E+00
  0.00000000E+00  0.00000000E+00  0.00000000E+00
  0.00000000E+00  0.00000000E+00  0.00000000E+00
  0.00000000E+00  0.00000000E+00  0.00000000E+00
  0.00000000E+00  0.00000000E+00  0.00000000E+00
  0.00000000E+00  0.00000000E+00  0.00000000E+00
  0.00000000E+00  0.00000000E+00  0.00000000E+00
