XCrySDen XSF file                       
    1.000000000000000     
     3.9420000000000002    0.0000000000000000    0.0000000000000000
     0.0000000000000000    3.9420000000000002    0.0000000000000000
     0.0000000000000000    0.0000000000000000   20.1658186514698876
   Pb   Ti   O 
     5     5    15
Direct
  0.0042587124562489  0.0013888113226412  0.0199801686075442
  0.0001369447193432  0.0048813486400347  0.2199915178171982
  0.9959099566083773  0.0027101371376687  0.4200371280105902
  0.9960032744567995  0.9981304764796725  0.6200583835440606
  0.0015946170240600  0.9952779459354537  0.8200146862444894
  0.5029161294683289  0.5022090868375582  0.1121470195710973
  0.4992164146961038  0.5037342275409045  0.3121808959470499
  0.4963065001112766  0.5012488775820099  0.5122226545614267
  0.4977716468879541  0.4970950801868873  0.7122097344219855
  0.5025843623634594  0.4971178434622484  0.9121717114841165
  0.5003628953651864  0.4967454957369205  0.0008877789970985
  0.5019957762222642  0.9978625550033793  0.0989395344739898
  0.0019212827059921  0.4972147430826017  0.0989331751763521
  0.5029174850426321  0.4988077074139575  0.2008757106897014
  0.5031957514030578  0.0005527347346216  0.2989626941903369
  0.0026120686489595  0.5001545589206585  0.2989708035638722
  0.5021413127247382  0.5018182033727240  0.4009106843495307
  0.5010506754500865  0.0024848739113844  0.4990271144191175
  0.0004054800783383  0.5028536308677892  0.4990094406365348
  0.4985758186400278  0.5019621985208583  0.6009499608921823
  0.4967353045021587  0.0007950999815351  0.6989987967432379
  0.9971567400702090  0.5013476475419245  0.6990415204060997
  0.4974038469007157  0.4991082773744574  0.8009261591977237
  0.4981342975827270  0.9973795697827081  0.8989888078543335
  0.9986927058709708  0.4971188686293883  0.8989525264646119
 
  0.00000000E+00  0.00000000E+00  0.00000000E+00
  0.00000000E+00  0.00000000E+00  0.00000000E+00
  0.00000000E+00  0.00000000E+00  0.00000000E+00
  0.00000000E+00  0.00000000E+00  0.00000000E+00
  0.00000000E+00  0.00000000E+00  0.00000000E+00
  0.00000000E+00  0.00000000E+00  0.00000000E+00
  0.00000000E+00  0.00000000E+00  0.00000000E+00
  0.00000000E+00  0.00000000E+00  0.00000000E+00
  0.00000000E+00  0.00000000E+00  0.00000000E+00
  0.00000000E+00  0.00000000E+00  0.00000000E+00
  0.00000000E+00  0.00000000E+00  0.00000000E+00
  0.00000000E+00  0.00000000E+00  0.00000000E+00
  0.00000000E+00  0.00000000E+00  0.00000000E+00
  0.00000000E+00  0.00000000E+00  0.00000000E+00
  0.00000000E+00  0.00000000E+00  0.00000000E+00
  0.00000000E+00  0.00000000E+00  0.00000000E+00
  0.00000000E+00  0.00000000E+00  0.00000000E+00
  0.00000000E+00  0.00000000E+00  0.00000000E+00
  0.00000000E+00  0.00000000E+00  0.00000000E+00
  0.00000000E+00  0.00000000E+00  0.00000000E+00
  0.00000000E+00  0.00000000E+00  0.00000000E+00
  0.00000000E+00  0.00000000E+00  0.00000000E+00
  0.00000000E+00  0.00000000E+00  0.00000000E+00
  0.00000000E+00  0.00000000E+00  0.00000000E+00
  0.00000000E+00  0.00000000E+00  0.00000000E+00
