XCrySDen XSF file                       
    1.000000000000000     
     4.0019999999999998    0.0000000000000000    0.0000000000000000
     0.0000000000000000    4.0019999999999998    0.0000000000000000
     0.0000000000000000    0.0000000000000000   27.1462262219699539
   Pb   Ti   O 
     7     7    21
Direct
  0.0549141780344423  0.0439236271617920  0.0047379237097876
  0.0040117521299974  0.0721024776472467  0.1476048301699872
  0.9541609218014114  0.0520970775792636  0.2904309615450640
  0.9276149850612648  0.0015060563671540  0.4332860180752635
  0.9499173521978649  0.9498373116783155  0.5761276317641013
  0.0046309345556310  0.9272064917286625  0.7189720460102557
  0.0711095954306538  0.9904345767125704  0.8619159388402989
  0.5269183814643087  0.5320264948575623  0.0759144880963779
  0.4803513443962106  0.5345743467649109  0.2188914292264484
  0.4675460690520002  0.5249598381284655  0.3616030008735595
  0.4653278959478498  0.4777249358641875  0.5045719740604736
  0.4762373429229127  0.4651117779564456  0.6472893936414935
  0.5284333004685643  0.4677513896096395  0.7902369672391714
  0.5357248279793467  0.5182522018479454  0.9331859897475547
  0.4821699254078153  0.4802784541353657  0.0043889332474450
  0.4935696560836463  0.9862425183140118  0.0750890050030019
  0.9949280965544967  0.4797231627043076  0.0761513472779304
  0.5023855726944877  0.4706067500406901  0.1472351353503541
  0.5111418727032330  0.9877602393339330  0.2191542877454902
  0.0099670307434745  0.4810171586415209  0.2182599410736856
  0.5202403629875844  0.4814494154935002  0.2900750174111422
  0.5203341568167493  0.9936232612525249  0.3618119855873039
  0.0136578319970061  0.4924494748065067  0.3608074033158862
  0.5290958371587702  0.5010244565602546  0.4329175818880549
  0.5182485150742614  0.0082894143315350  0.5039113035112982
  0.0117051382119575  0.5096347031549048  0.5048787204965333
  0.5172943165515879  0.5189360858255145  0.5757633976702526
  0.5062204171121862  0.0114347902740892  0.6466287547611179
  0.0056976570920946  0.5183528283205500  0.6473964780522210
  0.4965051409049144  0.5258369116040618  0.7185853832086704
  0.4869204640743457  0.0069234219695381  0.7908287687433142
  0.9896334455660871  0.5094096432021069  0.7891824832713851
  0.4726335359627354  0.4995834482149896  0.8615687765942103
  0.4818926888598399  0.9902757386521047  0.9326528523923282
  0.9888594559999607  0.4896395192643622  0.9333324586628046
 
  0.00000000E+00  0.00000000E+00  0.00000000E+00
  0.00000000E+00  0.00000000E+00  0.00000000E+00
  0.00000000E+00  0.00000000E+00  0.00000000E+00
  0.00000000E+00  0.00000000E+00  0.00000000E+00
  0.00000000E+00  0.00000000E+00  0.00000000E+00
  0.00000000E+00  0.00000000E+00  0.00000000E+00
  0.00000000E+00  0.00000000E+00  0.00000000E+00
  0.00000000E+00  0.00000000E+00  0.00000000E+00
  0.00000000E+00  0.00000000E+00  0.00000000E+00
  0.00000000E+00  0.00000000E+00  0.00000000E+00
  0.00000000E+00  0.00000000E+00  0.00000000E+00
  0.00000000E+00  0.00000000E+00  0.00000000E+00
  0.00000000E+00  0.00000000E+00  0.00000000E+00
  0.00000000E+00  0.00000000E+00  0.00000000E+00
  0.00000000E+00  0.00000000E+00  0.00000000E+00
  0.00000000E+00  0.00000000E+00  0.00000000E+00
  0.00000000E+00  0.00000000E+00  0.00000000E+00
  0.00000000E+00  0.00000000E+00  0.00000000E+00
  0.00000000E+00  0.00000000E+00  0.00000000E+00
  0.00000000E+00  0.00000000E+00  0.00000000E+00
  0.00000000E+00  0.00000000E+00  0.00000000E+00
  0.00000000E+00  0.00000000E+00  0.00000000E+00
  0.00000000E+00  0.00000000E+00  0.00000000E+00
  0.00000000E+00  0.00000000E+00  0.00000000E+00
  0.00000000E+00  0.00000000E+00  0.00000000E+00
  0.00000000E+00  0.00000000E+00  0.00000000E+00
  0.00000000E+00  0.00000000E+00  0.00000000E+00
  0.00000000E+00  0.00000000E+00  0.00000000E+00
  0.00000000E+00  0.00000000E+00  0.00000000E+00
  0.00000000E+00  0.00000000E+00  0.00000000E+00
  0.00000000E+00  0.00000000E+00  0.00000000E+00
  0.00000000E+00  0.00000000E+00  0.00000000E+00
  0.00000000E+00  0.00000000E+00  0.00000000E+00
  0.00000000E+00  0.00000000E+00  0.00000000E+00
  0.00000000E+00  0.00000000E+00  0.00000000E+00
