XCrySDen XSF file                       
    1.000000000000000     
     3.9540000000000002    0.0000000000000000    0.0000000000000000
     0.0000000000000000    3.9540000000000002    0.0000000000000000
     0.0000000000000000    0.0000000000000000   16.0753602974821277
   Pb   Ti   O 
     4     4    12
Direct
  0.0031451552087488  0.9986507892185711  0.0237362895875284
  0.0013492107814289  0.0031451552087488  0.2737362895891414
  0.9968548447912512  0.0013492107814289  0.5237362895907544
  0.9986507892185711  0.9968548447912512  0.7737362895923602
  0.5028412177538426  0.5001691896813280  0.1386033238242784
  0.4998308103186722  0.5028412177538426  0.3886033238258914
  0.4971587822461573  0.4998308103186722  0.6386033238274971
  0.5001691896813280  0.4971587822461573  0.8886033238291100
  0.4986491300868614  0.4987019664306509  0.9998811068904317
  0.4998678713095364  0.9983644018130815  0.1224114814356386
  0.0000863212436616  0.4980552201255938  0.1224143919336891
  0.5012980335693492  0.4986491300868614  0.2498811068920448
  0.5019447798744062  0.0000863212436616  0.3724143919353020
  0.0016355981869184  0.4998678713095364  0.3724114814372516
  0.5013508699131385  0.5012980335693492  0.4998811068936577
  0.5001321286904636  0.0016355981869184  0.6224114814388644
  0.9999136787563384  0.5019447798744062  0.6224143919369151
  0.4987019664306509  0.5013508699131385  0.7498811068952634
  0.4980552201255938  0.9999136787563384  0.8724143919385280
  0.9983644018130815  0.5001321286904636  0.8724114814404773
 
  0.00000000E+00  0.00000000E+00  0.00000000E+00
  0.00000000E+00  0.00000000E+00  0.00000000E+00
  0.00000000E+00  0.00000000E+00  0.00000000E+00
  0.00000000E+00  0.00000000E+00  0.00000000E+00
  0.00000000E+00  0.00000000E+00  0.00000000E+00
  0.00000000E+00  0.00000000E+00  0.00000000E+00
  0.00000000E+00  0.00000000E+00  0.00000000E+00
  0.00000000E+00  0.00000000E+00  0.00000000E+00
  0.00000000E+00  0.00000000E+00  0.00000000E+00
  0.00000000E+00  0.00000000E+00  0.00000000E+00
  0.00000000E+00  0.00000000E+00  0.00000000E+00
  0.00000000E+00  0.00000000E+00  0.00000000E+00
  0.00000000E+00  0.00000000E+00  0.00000000E+00
  0.00000000E+00  0.00000000E+00  0.00000000E+00
  0.00000000E+00  0.00000000E+00  0.00000000E+00
  0.00000000E+00  0.00000000E+00  0.00000000E+00
  0.00000000E+00  0.00000000E+00  0.00000000E+00
  0.00000000E+00  0.00000000E+00  0.00000000E+00
  0.00000000E+00  0.00000000E+00  0.00000000E+00
  0.00000000E+00  0.00000000E+00  0.00000000E+00
