XCrySDen XSF file                       
    1.000000000000000     
     3.9440000000000000    0.0000000000000000    0.0000000000000000
     0.0000000000000000    3.9440000000000000    0.0000000000000000
     0.0000000000000000    0.0000000000000000   28.1340769909477828
   Pb   Ti   O 
     7     7    21
Direct
  0.0173677871161829  0.0019861031909431  0.0138380672316008
  0.0093864201615019  0.0147760899256392  0.1567045298181157
  0.9942436000715463  0.0165412125747017  0.2995555102146944
  0.9835235414063840  0.0058361750671673  0.4424144207797637
  0.9851181179073836  0.9907817824293427  0.5852724149411599
  0.9980337971895267  0.9826500173070065  0.7281234321658800
  0.0123046486348213  0.9875479429412485  0.8709894023309392
  0.5136793251069937  0.5039723792846069  0.0799364464207748
  0.5049978752991802  0.5126995134111282  0.2227941326003565
  0.4933778690473418  0.5124940887687507  0.3656497585765744
  0.4862676060147622  0.5019388878768670  0.5085075469487501
  0.4894673190767238  0.4909941964342215  0.6513626092520109
  0.5010967864176786  0.4859182247273781  0.7942216036683772
  0.5110849049810158  0.4920608572310577  0.9370782073428964
  0.5003638403308683  0.4891173975655907  0.0008942429120896
  0.5042566389207398  0.9920275746588908  0.0708815921645419
  0.0054249383556319  0.4898126122158916  0.0709251751134145
  0.5087805611256945  0.4936341845087003  0.1437543575878804
  0.5107606383512425  0.9995264502599174  0.2137717372645669
  0.0098094612599144  0.4973178415875137  0.2137594984102963
  0.5104553338119201  0.5027395355328590  0.2866100290490874
  0.5088293770695429  0.0069928270708305  0.3566375999849934
  0.0064365776926314  0.5062911605084960  0.3565997101322411
  0.5042923789073668  0.5100031306911401  0.4294671665388688
  0.5002932101731146  0.0097298922590488  0.4994623159102166
  0.9983641171004617  0.5111993773640008  0.4994911862438741
  0.4949795159254152  0.5095083936941526  0.5723240734971383
  0.4918584218936135  0.0046131890836992  0.6423208497653222
  0.9916792521544451  0.5070600627086861  0.6423458107977875
  0.4892761764356182  0.5020160557568718  0.7151790111754101
  0.4889930209830328  0.9963692531139245  0.7852084826534679
  0.9908977239104999  0.4979462548377487  0.7851682742117005
  0.4918712764900260  0.4929110019866296  0.8580390610750528
  0.4950209160304031  0.9906859605348174  0.9280536009677250
  0.9974070246467686  0.4903003728905100  0.9280467505167409
 
  0.00000000E+00  0.00000000E+00  0.00000000E+00
  0.00000000E+00  0.00000000E+00  0.00000000E+00
  0.00000000E+00  0.00000000E+00  0.00000000E+00
  0.00000000E+00  0.00000000E+00  0.00000000E+00
  0.00000000E+00  0.00000000E+00  0.00000000E+00
  0.00000000E+00  0.00000000E+00  0.00000000E+00
  0.00000000E+00  0.00000000E+00  0.00000000E+00
  0.00000000E+00  0.00000000E+00  0.00000000E+00
  0.00000000E+00  0.00000000E+00  0.00000000E+00
  0.00000000E+00  0.00000000E+00  0.00000000E+00
  0.00000000E+00  0.00000000E+00  0.00000000E+00
  0.00000000E+00  0.00000000E+00  0.00000000E+00
  0.00000000E+00  0.00000000E+00  0.00000000E+00
  0.00000000E+00  0.00000000E+00  0.00000000E+00
  0.00000000E+00  0.00000000E+00  0.00000000E+00
  0.00000000E+00  0.00000000E+00  0.00000000E+00
  0.00000000E+00  0.00000000E+00  0.00000000E+00
  0.00000000E+00  0.00000000E+00  0.00000000E+00
  0.00000000E+00  0.00000000E+00  0.00000000E+00
  0.00000000E+00  0.00000000E+00  0.00000000E+00
  0.00000000E+00  0.00000000E+00  0.00000000E+00
  0.00000000E+00  0.00000000E+00  0.00000000E+00
  0.00000000E+00  0.00000000E+00  0.00000000E+00
  0.00000000E+00  0.00000000E+00  0.00000000E+00
  0.00000000E+00  0.00000000E+00  0.00000000E+00
  0.00000000E+00  0.00000000E+00  0.00000000E+00
  0.00000000E+00  0.00000000E+00  0.00000000E+00
  0.00000000E+00  0.00000000E+00  0.00000000E+00
  0.00000000E+00  0.00000000E+00  0.00000000E+00
  0.00000000E+00  0.00000000E+00  0.00000000E+00
  0.00000000E+00  0.00000000E+00  0.00000000E+00
  0.00000000E+00  0.00000000E+00  0.00000000E+00
  0.00000000E+00  0.00000000E+00  0.00000000E+00
  0.00000000E+00  0.00000000E+00  0.00000000E+00
  0.00000000E+00  0.00000000E+00  0.00000000E+00
