XCrySDen XSF file                       
    1.000000000000000     
     3.9319999999999999    0.0000000000000000    0.0000000000000000
     0.0000000000000000    3.9319999999999999    0.0000000000000000
     0.0000000000000000    0.0000000000000000   40.5181000356982111
   Pb   Ti   O 
    10    10    30
Direct
 -0.0028868891931328 -0.0036511929820088  0.0090097491133381
  0.0028433668642370 -0.0040415648772802  0.1090110783970994
  0.0093200404647322 -0.0013922774973947  0.2090162735699808
  0.0108966934633071  0.0023536950591738  0.3090273794037615
  0.0073245674322104  0.0034810876272622  0.4090239948200103
  0.0028869041926260  0.0036511929819306  0.5090097331126834
  0.9971566031355046  0.0040415798773774  0.6090110853959033
  0.9906799825362897  0.0013922814986738  0.7090162435705610
 -0.0108966704630600  0.9976463089417785  0.8090273794031293
 -0.0073245974329382 -0.0034810726273286  0.9090240238195902
  0.4976802220386792  0.4959604651643572  0.0551299779202649
  0.5033009619674694  0.4963553917410798  0.1551342026768773
  0.5085994320846864  0.4991271064693273  0.2551461410863967
  0.5093205051303328  0.5023219176983976  0.3551463536052896
  0.5062446776324736  0.5032853413276634  0.4551403707898383
  0.5023197779609018  0.5040395348341582  0.5551299739204495
  0.4966990670331545  0.5036446082585861  0.6551342176772870
  0.4914005379154456  0.5008728935306087  0.7551461410852818
  0.4906794648715190  0.4976780823012681  0.8551463536060070
  0.4937553513672341  0.4967146586709294  0.9551403407906458
  0.4923037823009052  0.4963415516965988 -0.0007285285159248
  0.4928488169597768  0.9957854035219353  0.0483363766222945
  0.9938370770033986  0.4956951698824422  0.0483320530682650
  0.4951280921175381  0.4952811632140971  0.0992628072960492
  0.4965106946019179  0.9951813762666498  0.1483294325307770
 -0.0021373549410095  0.4948303013752582  0.1483220643691830
  0.5000037719583346  0.4953809756508544  0.1992714018697055
  0.5024464199043972  0.9965029636726133  0.2483398874373099
  0.0035064406942517  0.4957496699618128  0.2483429787191865
  0.5059130191519343  0.4979566758881424  0.2992784139562131
  0.5077178994917828 -0.0000509341160118  0.3483471384908101
  0.0078512611220604  0.4993916359877947  0.3483427448387780
  0.5086438219832657  0.5015780295234163  0.3992758057562030
  0.5088035706760348  0.0028064264053811  0.4483292659207845
  0.0082946611823360  0.5026054845926041  0.4483351602573961
  0.5076962176991879  0.5036584483016672  0.4992714714842245
  0.5071511830405568  0.0042145964779577  0.5483363656221983
  0.0061629229971840  0.5043048301188441  0.5483320420676066
  0.5048719078827039  0.5047188367852146  0.5992628302975468
  0.5034893053992543  0.0048186237337761  0.6483294465322630
  0.0021373549399649  0.5051696986234276  0.6483220783693471
  0.4999962280408621  0.5046190243489965  0.6992713868687203
  0.4975535800962635  0.0034970363275502  0.7483398584367144
  0.9964935593053642  0.5042503300362264  0.7483429497187332
  0.4940869808462467  0.5020433241125816  0.7992784139546921
  0.4922821005083883  0.0000509341154434  0.8483471384929129
  0.9921487388788846  0.5006083640133348  0.8483427448402280
  0.4913561780154340  0.4984219704764919  0.8992757757569825
  0.4911964293237240 -0.0028064264050898  0.9483292949223110
  0.9917053388176212  0.4973945154077301  0.9483351892576442
 
  0.00000000E+00  0.00000000E+00  0.00000000E+00
  0.00000000E+00  0.00000000E+00  0.00000000E+00
  0.00000000E+00  0.00000000E+00  0.00000000E+00
  0.00000000E+00  0.00000000E+00  0.00000000E+00
  0.00000000E+00  0.00000000E+00  0.00000000E+00
  0.00000000E+00  0.00000000E+00  0.00000000E+00
  0.00000000E+00  0.00000000E+00  0.00000000E+00
  0.00000000E+00  0.00000000E+00  0.00000000E+00
  0.00000000E+00  0.00000000E+00  0.00000000E+00
  0.00000000E+00  0.00000000E+00  0.00000000E+00
  0.00000000E+00  0.00000000E+00  0.00000000E+00
  0.00000000E+00  0.00000000E+00  0.00000000E+00
  0.00000000E+00  0.00000000E+00  0.00000000E+00
  0.00000000E+00  0.00000000E+00  0.00000000E+00
  0.00000000E+00  0.00000000E+00  0.00000000E+00
  0.00000000E+00  0.00000000E+00  0.00000000E+00
  0.00000000E+00  0.00000000E+00  0.00000000E+00
  0.00000000E+00  0.00000000E+00  0.00000000E+00
  0.00000000E+00  0.00000000E+00  0.00000000E+00
  0.00000000E+00  0.00000000E+00  0.00000000E+00
  0.00000000E+00  0.00000000E+00  0.00000000E+00
  0.00000000E+00  0.00000000E+00  0.00000000E+00
  0.00000000E+00  0.00000000E+00  0.00000000E+00
  0.00000000E+00  0.00000000E+00  0.00000000E+00
  0.00000000E+00  0.00000000E+00  0.00000000E+00
  0.00000000E+00  0.00000000E+00  0.00000000E+00
  0.00000000E+00  0.00000000E+00  0.00000000E+00
  0.00000000E+00  0.00000000E+00  0.00000000E+00
  0.00000000E+00  0.00000000E+00  0.00000000E+00
  0.00000000E+00  0.00000000E+00  0.00000000E+00
  0.00000000E+00  0.00000000E+00  0.00000000E+00
  0.00000000E+00  0.00000000E+00  0.00000000E+00
  0.00000000E+00  0.00000000E+00  0.00000000E+00
  0.00000000E+00  0.00000000E+00  0.00000000E+00
  0.00000000E+00  0.00000000E+00  0.00000000E+00
  0.00000000E+00  0.00000000E+00  0.00000000E+00
  0.00000000E+00  0.00000000E+00  0.00000000E+00
  0.00000000E+00  0.00000000E+00  0.00000000E+00
  0.00000000E+00  0.00000000E+00  0.00000000E+00
  0.00000000E+00  0.00000000E+00  0.00000000E+00
  0.00000000E+00  0.00000000E+00  0.00000000E+00
  0.00000000E+00  0.00000000E+00  0.00000000E+00
  0.00000000E+00  0.00000000E+00  0.00000000E+00
  0.00000000E+00  0.00000000E+00  0.00000000E+00
  0.00000000E+00  0.00000000E+00  0.00000000E+00
  0.00000000E+00  0.00000000E+00  0.00000000E+00
  0.00000000E+00  0.00000000E+00  0.00000000E+00
  0.00000000E+00  0.00000000E+00  0.00000000E+00
  0.00000000E+00  0.00000000E+00  0.00000000E+00
  0.00000000E+00  0.00000000E+00  0.00000000E+00
