XCrySDen XSF file                       
    1.000000000000000     
     4.0300000000000002    0.0000000000000000    0.0000000000000000
     0.0000000000000000    4.0300000000000002    0.0000000000000000
     0.0000000000000000    0.0000000000000000   57.8536236928846250
   Pb   Ti   O 
    15    15    45
Direct
  0.0782376500591584  0.9886220443766812  0.0021758508895396
  0.0692069284430867  0.0311156740650570  0.0688411140340785
  0.0612008994497759  0.0477554603915281  0.1354984352191936
  0.0497652400713576  0.0629700910477775  0.2021638612812423
  0.0100696096630446  0.0799207379744365  0.2688383197190012
  0.9656235298315704  0.0694249556487971  0.3355051518983131
  0.9439898558777883  0.0548938020556001  0.4021819043320334
  0.9238185152463161  0.0139358641422609  0.4688625434922493
  0.9306171814165212  0.9732490582685075  0.5355210038672210
  0.9371354167195901  0.9570120730759908  0.6021809928208507
  0.9477217921448224  0.9413896266776451  0.6688441742813347
  0.9874516391945969  0.9228900989431682  0.7355186884957554
  0.0292167511343771  0.9309235042399772  0.8021816379693401
  0.0455095310611641  0.9380389956012378  0.8688396938552025
  0.0606568877571189  0.9489569106489335  0.9355035512312373
  0.5406864368084481  0.5116080588299791  0.0354357370413684
  0.5414788175897174  0.5224505632120247  0.1020700700240208
  0.5408668823538590  0.5294434869729117  0.1686702489737977
  0.5334215350644167  0.5372164818664285  0.2353234490872438
  0.4868979520418489  0.5424182755335000  0.3020911629586457
  0.4752176011855675  0.5426526348631872  0.3687127485003148
  0.4667808408246399  0.5362980162072745  0.4353321425174448
  0.4609939384865179  0.4910955445170126  0.5021083949143986
  0.4590519669690143  0.4806335204932535  0.5687487765801651
  0.4584515509176171  0.4738144047409660  0.6353570375010361
  0.4648340931534597  0.4657788498812626  0.7019938368409501
  0.5103583375948202  0.4602352618728581  0.7687730616187025
  0.5210123398617235  0.4588334076408253  0.8354083375156590
  0.5277994603528117  0.4587946310496243  0.9020164244350360
  0.5355465861747261  0.4657147665779758  0.9686595456687332
  0.4692596320879323  0.4881208987792750  0.0019840274092218
  0.4829104834424101  0.9809381292533549  0.0351960817651002
  0.9877945681710388  0.4814265662625711  0.0354915168484863
  0.4798538209415567  0.4735186634842027  0.0686854326994610
  0.4907725123871987  0.9795101499368987  0.1018215627242141
  0.9943268931206440  0.4766088778941492  0.1020961888741169
  0.4879636789676082  0.4708547069459542  0.1353086866870178
  0.4969237301974750  0.9812892450133331  0.1684476922723459
 -0.0009200544076127  0.4771700207063037  0.1686901359161583
  0.4956083645392351  0.4708444123402407  0.2019347160532751
  0.5049886517711781  0.9839870470817030  0.2351141013232478
  0.0038627913151575  0.4787312629238524  0.2353031902359455
  0.5115384268805792  0.4709669392557755  0.2686436512126507
  0.5182495372147118  0.9899214468809036  0.3021768209179445
  0.0186234447005182  0.4851528158495767  0.3018318252044868
  0.5266643271487635  0.4828591938731613  0.3353403972093465
  0.5237299298747226 -0.0023472002073903  0.3688004463720891
  0.0203565075247747  0.4947515410928335  0.3684107254510529
  0.5309785492227018  0.4942933554843647  0.4019612668843771
  0.5243956079594123  0.0046577993399237  0.4353585925017216
  0.0193399585690926  0.5055155321200107  0.4350756233689738
  0.5327316071589629  0.5127451184951008  0.4686590603503261
  0.5192798465159968  0.0206026302716958  0.5018839391436637
  0.0141851306022066  0.5200375351310793  0.5021416964419607
  0.5222685283482069  0.5277785752174324  0.5353633423644836
  0.5108048803355871  0.0226304847376779  0.5685067375363628
  0.0069917537189748  0.5252999951751656  0.5687815011740490
  0.5133566976132988  0.5309160964511519  0.6019922958464824
  0.5035423057489401  0.0211994455236838  0.6351246297115787
  0.0011441237931197  0.5251568869170531  0.6353833399805969
  0.5045690104178324  0.5313813636738676  0.6686143746621496
  0.4943441721388853  0.0187391760221615  0.7017658764983783
  0.9953267267593684  0.5238762490494282  0.7019948152825927
  0.4875414325615534  0.5318607348396409  0.7353210028057812
  0.4806422254596329  0.0132428634631159  0.7688208714806160
  0.9801270135311757  0.5182115599461863  0.7685379608657877
  0.4727964444101039  0.5211634236440367  0.8020249805634031
  0.4756762323941823  0.0063192048392194  0.8354377119969455
  0.9784643367298476  0.5099876313697100  0.8351654817948749
  0.4699553327463311  0.5126559972622311  0.8686509953882693
  0.4759886965188556  0.0010331584398929  0.9020358869380093
  0.9800230551539491  0.5033070001520248  0.9017882809648723
  0.4696608291074457  0.5045057280425892  0.9352746628841238
  0.4772754385582433  0.9957666129203583  0.9686519721611824
  0.9824630505987600  0.4947243226878084  0.9684385068517691
 
  0.00000000E+00  0.00000000E+00  0.00000000E+00
  0.00000000E+00  0.00000000E+00  0.00000000E+00
  0.00000000E+00  0.00000000E+00  0.00000000E+00
  0.00000000E+00  0.00000000E+00  0.00000000E+00
  0.00000000E+00  0.00000000E+00  0.00000000E+00
  0.00000000E+00  0.00000000E+00  0.00000000E+00
  0.00000000E+00  0.00000000E+00  0.00000000E+00
  0.00000000E+00  0.00000000E+00  0.00000000E+00
  0.00000000E+00  0.00000000E+00  0.00000000E+00
  0.00000000E+00  0.00000000E+00  0.00000000E+00
  0.00000000E+00  0.00000000E+00  0.00000000E+00
  0.00000000E+00  0.00000000E+00  0.00000000E+00
  0.00000000E+00  0.00000000E+00  0.00000000E+00
  0.00000000E+00  0.00000000E+00  0.00000000E+00
  0.00000000E+00  0.00000000E+00  0.00000000E+00
  0.00000000E+00  0.00000000E+00  0.00000000E+00
  0.00000000E+00  0.00000000E+00  0.00000000E+00
  0.00000000E+00  0.00000000E+00  0.00000000E+00
  0.00000000E+00  0.00000000E+00  0.00000000E+00
  0.00000000E+00  0.00000000E+00  0.00000000E+00
  0.00000000E+00  0.00000000E+00  0.00000000E+00
  0.00000000E+00  0.00000000E+00  0.00000000E+00
  0.00000000E+00  0.00000000E+00  0.00000000E+00
  0.00000000E+00  0.00000000E+00  0.00000000E+00
  0.00000000E+00  0.00000000E+00  0.00000000E+00
  0.00000000E+00  0.00000000E+00  0.00000000E+00
  0.00000000E+00  0.00000000E+00  0.00000000E+00
  0.00000000E+00  0.00000000E+00  0.00000000E+00
  0.00000000E+00  0.00000000E+00  0.00000000E+00
  0.00000000E+00  0.00000000E+00  0.00000000E+00
  0.00000000E+00  0.00000000E+00  0.00000000E+00
  0.00000000E+00  0.00000000E+00  0.00000000E+00
  0.00000000E+00  0.00000000E+00  0.00000000E+00
  0.00000000E+00  0.00000000E+00  0.00000000E+00
  0.00000000E+00  0.00000000E+00  0.00000000E+00
  0.00000000E+00  0.00000000E+00  0.00000000E+00
  0.00000000E+00  0.00000000E+00  0.00000000E+00
  0.00000000E+00  0.00000000E+00  0.00000000E+00
  0.00000000E+00  0.00000000E+00  0.00000000E+00
  0.00000000E+00  0.00000000E+00  0.00000000E+00
  0.00000000E+00  0.00000000E+00  0.00000000E+00
  0.00000000E+00  0.00000000E+00  0.00000000E+00
  0.00000000E+00  0.00000000E+00  0.00000000E+00
  0.00000000E+00  0.00000000E+00  0.00000000E+00
  0.00000000E+00  0.00000000E+00  0.00000000E+00
  0.00000000E+00  0.00000000E+00  0.00000000E+00
  0.00000000E+00  0.00000000E+00  0.00000000E+00
  0.00000000E+00  0.00000000E+00  0.00000000E+00
  0.00000000E+00  0.00000000E+00  0.00000000E+00
  0.00000000E+00  0.00000000E+00  0.00000000E+00
  0.00000000E+00  0.00000000E+00  0.00000000E+00
  0.00000000E+00  0.00000000E+00  0.00000000E+00
  0.00000000E+00  0.00000000E+00  0.00000000E+00
  0.00000000E+00  0.00000000E+00  0.00000000E+00
  0.00000000E+00  0.00000000E+00  0.00000000E+00
  0.00000000E+00  0.00000000E+00  0.00000000E+00
  0.00000000E+00  0.00000000E+00  0.00000000E+00
  0.00000000E+00  0.00000000E+00  0.00000000E+00
  0.00000000E+00  0.00000000E+00  0.00000000E+00
  0.00000000E+00  0.00000000E+00  0.00000000E+00
  0.00000000E+00  0.00000000E+00  0.00000000E+00
  0.00000000E+00  0.00000000E+00  0.00000000E+00
  0.00000000E+00  0.00000000E+00  0.00000000E+00
  0.00000000E+00  0.00000000E+00  0.00000000E+00
  0.00000000E+00  0.00000000E+00  0.00000000E+00
  0.00000000E+00  0.00000000E+00  0.00000000E+00
  0.00000000E+00  0.00000000E+00  0.00000000E+00
  0.00000000E+00  0.00000000E+00  0.00000000E+00
  0.00000000E+00  0.00000000E+00  0.00000000E+00
  0.00000000E+00  0.00000000E+00  0.00000000E+00
  0.00000000E+00  0.00000000E+00  0.00000000E+00
  0.00000000E+00  0.00000000E+00  0.00000000E+00
  0.00000000E+00  0.00000000E+00  0.00000000E+00
  0.00000000E+00  0.00000000E+00  0.00000000E+00
  0.00000000E+00  0.00000000E+00  0.00000000E+00
