XCrySDen XSF file                       
    1.000000000000000     
     3.9480000000000000    0.0000000000000000    0.0000000000000000
     0.0000000000000000    3.9480000000000000    0.0000000000000000
     0.0000000000000000    0.0000000000000000   20.1151531271446977
   Pb   Ti   O 
     5     5    15
Direct
  0.0137491367294011 -0.0008568820037076  0.0198680138559023
  0.0044925538906768  0.0109638438687891  0.2198782393961607
  0.9904346121945040  0.0046871624496472  0.4198496070742483
  0.9930671887764393  0.9909616855501345  0.6198451682530625
  0.0056681065255425  0.9877364976300378  0.8198476027386257
  0.5101205210571566  0.5025152345488889  0.1120144903424776
  0.4998159598773357  0.5091981491922943  0.3120034242444682
  0.4914545323672009  0.5008567455693170  0.5119851044112566
  0.4968604516972864  0.4920944380411721  0.7119942579933930
  0.5059783838223744  0.4918267147214350  0.9120128698769263
  0.4993020160574330  0.4935518374536162  0.0010642121274765
  0.5028992913322735  0.9953696179296175  0.0990889840791189
  0.0038466506382955  0.4937771497097327  0.0990829215708718
  0.5064707980179838  0.4984671814473656  0.2010693175410349
  0.5070642864116429  0.0032327334667793  0.2990771482172957
  0.0057520828330344  0.5023664259983663  0.2990790042411467
  0.5033322881257136  0.5068960359967798  0.4010615766014434
  0.4999318150568819  0.0069880277579115  0.4990696149830729
 -0.0013826343687823  0.5082507406200321  0.4990649989848138
  0.4943218087530828  0.5062276907838967  0.6010473041329422
  0.4920827411155735  0.0020947049953775  0.6990534960653073
  0.9928763001815224  0.5041974147037466  0.6990825630926203
  0.4923909270401267  0.4984642600215606  0.8010551934422339
  0.4936267301382706 -0.0050703638414609  0.8991089008020288
  0.9958434517290228  0.4952029533886425  0.8990845941963624
 
  0.00000000E+00  0.00000000E+00  0.00000000E+00
  0.00000000E+00  0.00000000E+00  0.00000000E+00
  0.00000000E+00  0.00000000E+00  0.00000000E+00
  0.00000000E+00  0.00000000E+00  0.00000000E+00
  0.00000000E+00  0.00000000E+00  0.00000000E+00
  0.00000000E+00  0.00000000E+00  0.00000000E+00
  0.00000000E+00  0.00000000E+00  0.00000000E+00
  0.00000000E+00  0.00000000E+00  0.00000000E+00
  0.00000000E+00  0.00000000E+00  0.00000000E+00
  0.00000000E+00  0.00000000E+00  0.00000000E+00
  0.00000000E+00  0.00000000E+00  0.00000000E+00
  0.00000000E+00  0.00000000E+00  0.00000000E+00
  0.00000000E+00  0.00000000E+00  0.00000000E+00
  0.00000000E+00  0.00000000E+00  0.00000000E+00
  0.00000000E+00  0.00000000E+00  0.00000000E+00
  0.00000000E+00  0.00000000E+00  0.00000000E+00
  0.00000000E+00  0.00000000E+00  0.00000000E+00
  0.00000000E+00  0.00000000E+00  0.00000000E+00
  0.00000000E+00  0.00000000E+00  0.00000000E+00
  0.00000000E+00  0.00000000E+00  0.00000000E+00
  0.00000000E+00  0.00000000E+00  0.00000000E+00
  0.00000000E+00  0.00000000E+00  0.00000000E+00
  0.00000000E+00  0.00000000E+00  0.00000000E+00
  0.00000000E+00  0.00000000E+00  0.00000000E+00
  0.00000000E+00  0.00000000E+00  0.00000000E+00
