XCrySDen XSF file                       
    1.000000000000000     
     3.9460000000000002    0.0000000000000000    0.0000000000000000
     0.0000000000000000    3.9460000000000002    0.0000000000000000
     0.0000000000000000    0.0000000000000000   32.1781179481918045
   Pb   Ti   O 
     8     8    24
Direct
  0.0177393500719334  0.9955742765525339  0.0109054440773187
  0.0158447357282805  0.0093879991251033  0.1359094285563718
  0.0044257234474660  0.0177393500719334  0.2609054370773003
  0.9906119808749093  0.0158447357282805  0.3859094285563718
  0.9822606649280785  0.0044257234474660  0.5109054370773785
  0.9841552442717109  0.9906119808749093  0.6359094285563432
  0.9955742765525339  0.9822606649280785  0.7609054370773785
  0.0093879991251033  0.9841552442717109  0.8859094285563432
  0.5147951554360414  0.4980153632638606  0.0686320600804706
  0.5119931058777211  0.5085486639836854  0.1936321147124289
  0.5019846367360967  0.5147951554360414  0.3186320750804683
  0.4914513060163049  0.5119931058777211  0.4436321297124196
  0.4852048445639444  0.5019846367360967  0.5686320450804374
  0.4880068641221984  0.4914513060163049  0.6936320997124384
  0.4980153632638606  0.4852048445639444  0.8186320450804374
  0.5085486639836854  0.4880068641221984  0.9436320997124384
  0.4983202924405912  0.4871280364557042  0.9993463978417737
  0.5023616606414030  0.9886579093911303  0.0606017088780618
  0.0041050377545823  0.4868682170100244  0.0606353959125990
  0.5078525410045134  0.4898362459472521  0.1243471965490906
  0.5108509963012081  0.9950902895899404  0.1856102939839167
  0.0108679920993386  0.4926129136872838  0.1856312044080177
  0.5128719635442959  0.4983202924405912  0.2493463978417737
  0.5131317829898903  0.0041050377545823  0.3106353809126227
  0.0113420906088697  0.5023616606414030  0.3106016938780499
  0.5101637540527124  0.5078525410045134  0.3743471965490764
  0.5073870863127162  0.0108679920993386  0.4356311894079916
  0.0049097104100595  0.5108509963012081  0.4356102789839120
  0.5016797075593946  0.5128719635442959  0.4993463978417738
  0.4976383393585543  0.0113420906088697  0.5606016938780713
  0.9958949622454177  0.5131317829898903  0.5606353809125302
  0.4921474589954297  0.5101637540527124  0.6243471965490479
  0.4891490036988346  0.0049097104100595  0.6856102789839618
  0.9891320079006614  0.5073870863127162  0.6856311894079916
  0.4871280364557042  0.5016797075593946  0.7493463978417666
  0.4868682170100244  0.9958949622454177  0.8106353809125302
  0.9886579093911303  0.4976383393585543  0.8106016938780713
  0.4898362459472521  0.4921474589954297  0.8743471965490479
  0.4926129136872838  0.9891320079006614  0.9356311894079916
  0.9950902895899404  0.4891490036988346  0.9356102789839618
 
  0.00000000E+00  0.00000000E+00  0.00000000E+00
  0.00000000E+00  0.00000000E+00  0.00000000E+00
  0.00000000E+00  0.00000000E+00  0.00000000E+00
  0.00000000E+00  0.00000000E+00  0.00000000E+00
  0.00000000E+00  0.00000000E+00  0.00000000E+00
  0.00000000E+00  0.00000000E+00  0.00000000E+00
  0.00000000E+00  0.00000000E+00  0.00000000E+00
  0.00000000E+00  0.00000000E+00  0.00000000E+00
  0.00000000E+00  0.00000000E+00  0.00000000E+00
  0.00000000E+00  0.00000000E+00  0.00000000E+00
  0.00000000E+00  0.00000000E+00  0.00000000E+00
  0.00000000E+00  0.00000000E+00  0.00000000E+00
  0.00000000E+00  0.00000000E+00  0.00000000E+00
  0.00000000E+00  0.00000000E+00  0.00000000E+00
  0.00000000E+00  0.00000000E+00  0.00000000E+00
  0.00000000E+00  0.00000000E+00  0.00000000E+00
  0.00000000E+00  0.00000000E+00  0.00000000E+00
  0.00000000E+00  0.00000000E+00  0.00000000E+00
  0.00000000E+00  0.00000000E+00  0.00000000E+00
  0.00000000E+00  0.00000000E+00  0.00000000E+00
  0.00000000E+00  0.00000000E+00  0.00000000E+00
  0.00000000E+00  0.00000000E+00  0.00000000E+00
  0.00000000E+00  0.00000000E+00  0.00000000E+00
  0.00000000E+00  0.00000000E+00  0.00000000E+00
  0.00000000E+00  0.00000000E+00  0.00000000E+00
  0.00000000E+00  0.00000000E+00  0.00000000E+00
  0.00000000E+00  0.00000000E+00  0.00000000E+00
  0.00000000E+00  0.00000000E+00  0.00000000E+00
  0.00000000E+00  0.00000000E+00  0.00000000E+00
  0.00000000E+00  0.00000000E+00  0.00000000E+00
  0.00000000E+00  0.00000000E+00  0.00000000E+00
  0.00000000E+00  0.00000000E+00  0.00000000E+00
  0.00000000E+00  0.00000000E+00  0.00000000E+00
  0.00000000E+00  0.00000000E+00  0.00000000E+00
  0.00000000E+00  0.00000000E+00  0.00000000E+00
  0.00000000E+00  0.00000000E+00  0.00000000E+00
  0.00000000E+00  0.00000000E+00  0.00000000E+00
  0.00000000E+00  0.00000000E+00  0.00000000E+00
  0.00000000E+00  0.00000000E+00  0.00000000E+00
  0.00000000E+00  0.00000000E+00  0.00000000E+00
