XCrySDen XSF file                       
    1.000000000000000     
     3.9340000000000002    0.0000000000000000    0.0000000000000000
     0.0000000000000000    3.9340000000000002    0.0000000000000000
     0.0000000000000000    0.0000000000000000   20.2381413811668160
   Pb   Ti   O 
     5     5    15
Direct
  0.0085352845385970 -0.0002434395032932  0.0201558461471161
  0.0029119434649893  0.0080966569231669  0.2201565271860889
  0.9931892468844725  0.0051762110760322  0.4201605457736345
  0.9930897187805020  0.9950917077216693  0.6201564873466650
  0.0024895326664404  0.9918835131283730  0.8201563590876781
  0.5065624764811776  0.5015363711089449  0.1123797152736696
  0.5005479304051663  0.5067258161266766  0.3123799016999504
  0.4938036379467065  0.5025345975965740  0.5123799773810476
  0.4957236766544694  0.4949086377516013  0.7123790284208524
  0.5034936316212979  0.4942882642268157  0.9123790276459326
  0.5000034213447535  0.4944249097768276  0.0007745902833251
  0.5032668906338239  0.9960680300509002  0.0988710313226921
  0.0035455383832142  0.4947675765232494  0.0988917037024951
  0.5052903709980134  0.4982904815403065  0.2007766938100861
  0.5059612591905521  0.0022068152345052  0.2988918601587924
  0.0048182529126297  0.5015512756803113  0.2988764415029806
  0.5032404313440465  0.5045580425333620  0.4007733558436425
  0.5003315383186233  0.0052733528960270  0.4988828069011298
 -0.0006396330932209  0.5061596810303207  0.4988878961969619
  0.4966412276030689  0.5045007660191205  0.6007771757995694
  0.4942663274132884  0.0010437410025462  0.6988797205380504
  0.9948069201565489  0.5022530216003451  0.6988868164058853
  0.4946960073626095  0.4982291046155650  0.8007736892375532
  0.4960492666456075  0.9954057411324605  0.8988895102332973
  0.9973751013426366  0.4952691242075694  0.8988719003651986
 
  0.00000000E+00  0.00000000E+00  0.00000000E+00
  0.00000000E+00  0.00000000E+00  0.00000000E+00
  0.00000000E+00  0.00000000E+00  0.00000000E+00
  0.00000000E+00  0.00000000E+00  0.00000000E+00
  0.00000000E+00  0.00000000E+00  0.00000000E+00
  0.00000000E+00  0.00000000E+00  0.00000000E+00
  0.00000000E+00  0.00000000E+00  0.00000000E+00
  0.00000000E+00  0.00000000E+00  0.00000000E+00
  0.00000000E+00  0.00000000E+00  0.00000000E+00
  0.00000000E+00  0.00000000E+00  0.00000000E+00
  0.00000000E+00  0.00000000E+00  0.00000000E+00
  0.00000000E+00  0.00000000E+00  0.00000000E+00
  0.00000000E+00  0.00000000E+00  0.00000000E+00
  0.00000000E+00  0.00000000E+00  0.00000000E+00
  0.00000000E+00  0.00000000E+00  0.00000000E+00
  0.00000000E+00  0.00000000E+00  0.00000000E+00
  0.00000000E+00  0.00000000E+00  0.00000000E+00
  0.00000000E+00  0.00000000E+00  0.00000000E+00
  0.00000000E+00  0.00000000E+00  0.00000000E+00
  0.00000000E+00  0.00000000E+00  0.00000000E+00
  0.00000000E+00  0.00000000E+00  0.00000000E+00
  0.00000000E+00  0.00000000E+00  0.00000000E+00
  0.00000000E+00  0.00000000E+00  0.00000000E+00
  0.00000000E+00  0.00000000E+00  0.00000000E+00
  0.00000000E+00  0.00000000E+00  0.00000000E+00
