XCrySDen XSF file                       
    1.000000000000000     
     3.9500000000000002    0.0000000000000000    0.0000000000000000
     0.0000000000000000    3.9500000000000002    0.0000000000000000
     0.0000000000000000    0.0000000000000000   27.3990362084189485
   Pb   Ti   O 
     7     7    21
Direct
  0.0477515108703939  0.0377906008152577  0.0048910724601927
  0.0039208672500538  0.0622434458593532  0.1477529288749182
  0.9601336991698085  0.0450485805794565  0.2905880106204328
  0.9375592980736698  0.0011838954938019  0.4334410266215998
  0.9572505811973616  0.9559562605898765  0.5762947016141421
  0.0055234934556678  0.9387397364690114  0.7191399304763851
  0.0599013474557421  0.9900122259149767  0.8620584973940987
  0.5214996531411294  0.5273204836970979  0.0760974906200575
  0.4853095738064600  0.5297222360654135  0.2190403237342189
  0.4721677405964841  0.5194339670106244  0.3618167071601082
  0.4702561460642992  0.4826320333189252  0.5047370151774114
  0.4823175405523932  0.4702139595076651  0.6475162557712566
  0.5229376974893297  0.4737061712431878  0.7903944344169569
  0.5304888288405576  0.5128195075974121  0.9332952121215853
  0.4855594688711856  0.4840201403684986  0.0042880703644554
  0.4929797918898204  0.9900993838010528  0.0751093727914819
  0.9970964168579803  0.4807126363596017  0.0759847541645396
  0.5020810853995035  0.4762376730436991  0.1471379970470115
  0.5108211494402143  0.9914137624010566  0.2189012597596565
  0.0072233816547347  0.4817530392592426  0.2181695264118647
  0.5165556065284498  0.4849678386692756  0.2899935134907002
  0.5193391968475717  0.9958323526086379  0.3616545842611970
  0.0098526552788333  0.4919331139264916  0.3608393501803557
  0.5235163088456887  0.5008109890347046  0.4328372420612148
  0.5174735938910581  0.0056989537724918  0.5038336528950043
  0.0081422015567446  0.5095293667015183  0.5046314039441062
  0.5137079619433370  0.5155051372787296  0.5756903712050705
  0.5065271017041824  0.0080083391489127  0.6466797791984039
  0.0035113363527644  0.5176379917222776  0.6472738607114812
  0.4966961813750955  0.5206310346986719  0.7185134574285298
  0.4865556985032148  0.0046461949996643  0.7905136802371228
  0.9924896228211570  0.5104614542919121  0.7892437817347602
  0.4780389668227851  0.4999487435281749  0.8614477676851540
  0.4825554432664445  0.9931172658858722  0.9325278973880680
  0.9922588521855784  0.4902114843379864  0.9330536782407266
 
  0.00000000E+00  0.00000000E+00  0.00000000E+00
  0.00000000E+00  0.00000000E+00  0.00000000E+00
  0.00000000E+00  0.00000000E+00  0.00000000E+00
  0.00000000E+00  0.00000000E+00  0.00000000E+00
  0.00000000E+00  0.00000000E+00  0.00000000E+00
  0.00000000E+00  0.00000000E+00  0.00000000E+00
  0.00000000E+00  0.00000000E+00  0.00000000E+00
  0.00000000E+00  0.00000000E+00  0.00000000E+00
  0.00000000E+00  0.00000000E+00  0.00000000E+00
  0.00000000E+00  0.00000000E+00  0.00000000E+00
  0.00000000E+00  0.00000000E+00  0.00000000E+00
  0.00000000E+00  0.00000000E+00  0.00000000E+00
  0.00000000E+00  0.00000000E+00  0.00000000E+00
  0.00000000E+00  0.00000000E+00  0.00000000E+00
  0.00000000E+00  0.00000000E+00  0.00000000E+00
  0.00000000E+00  0.00000000E+00  0.00000000E+00
  0.00000000E+00  0.00000000E+00  0.00000000E+00
  0.00000000E+00  0.00000000E+00  0.00000000E+00
  0.00000000E+00  0.00000000E+00  0.00000000E+00
  0.00000000E+00  0.00000000E+00  0.00000000E+00
  0.00000000E+00  0.00000000E+00  0.00000000E+00
  0.00000000E+00  0.00000000E+00  0.00000000E+00
  0.00000000E+00  0.00000000E+00  0.00000000E+00
  0.00000000E+00  0.00000000E+00  0.00000000E+00
  0.00000000E+00  0.00000000E+00  0.00000000E+00
  0.00000000E+00  0.00000000E+00  0.00000000E+00
  0.00000000E+00  0.00000000E+00  0.00000000E+00
  0.00000000E+00  0.00000000E+00  0.00000000E+00
  0.00000000E+00  0.00000000E+00  0.00000000E+00
  0.00000000E+00  0.00000000E+00  0.00000000E+00
  0.00000000E+00  0.00000000E+00  0.00000000E+00
  0.00000000E+00  0.00000000E+00  0.00000000E+00
  0.00000000E+00  0.00000000E+00  0.00000000E+00
  0.00000000E+00  0.00000000E+00  0.00000000E+00
  0.00000000E+00  0.00000000E+00  0.00000000E+00
