XCrySDen XSF file                       
    1.000000000000000     
     4.0119999999999996    0.0000000000000000    0.0000000000000000
     0.0000000000000000    4.0119999999999996    0.0000000000000000
     0.0000000000000000    0.0000000000000000   38.7050381077059455
   Pb   Ti   O 
    10    10    30
Direct
  0.0754918211958009  0.9988522343683187  0.0022010003924080
  0.0555748558142065  0.0468982282799938  0.1022040016399258
  0.0079496626600786  0.0738692501686503  0.2022311894251257
  0.9655435026800787  0.0644263314404743  0.3022032646308178
  0.9417738128489679  0.0447321139358737  0.4022212979709567
  0.9245081938036922  0.0011477656316033  0.5022009843917530
  0.9444251141855352  0.9531017867201035  0.6022040086387291
  0.9920503603409430  0.9261307538326290  0.7022311594257059
  0.0344565203201682  0.9355736725604783  0.8022032646301854
  0.0582261571503049  0.9552679010640602  0.9022213269705363
  0.5369780745808684  0.5207684074510512  0.0521165146368872
  0.5286339856727508  0.5327819277224570  0.1520169590067197
  0.4842199573081805  0.5363190011222332  0.2521347069518047
  0.4718661082095182  0.5341170105190943  0.3520804869631042
  0.4649394433345981  0.5245124913602743  0.4520013531159019
  0.4630219254187122  0.4792315925474638  0.5521165106370716
  0.4713660433278734  0.4672180722772088  0.6520169740071297
  0.5157800126919518  0.4636809988777029  0.7521347069506892
  0.5281338617923338  0.4658829894805718  0.8520804869638220
  0.5350605856651096  0.4754875086383186  0.9520013231167096
  0.4705498390711639  0.4960137932385004  0.0019564433975793
  0.4827566827436352  0.9890309428691025  0.0516595388530674
  0.9885750831644691  0.4880833716283458  0.0523443908474084
  0.4825311419674927  0.4786460171097934  0.1019694807066241
  0.4940495167211165  0.9851538908784028  0.1514560490231375
  0.9951027574847452  0.4794117234848670  0.1522234190212082
  0.5020678228243731  0.4691657503681487  0.2019823413387424
  0.5100194024792400  0.9858117687802858  0.2521721348482037
  0.0100685089446963  0.4791862413370752  0.2518425441577070
  0.5175099511511906  0.4764233371569995  0.3020100594052672
  0.5176199480284301  0.9909147785909024  0.3522689115580926
  0.0133672068115599  0.4863902151917264  0.3516027320066672
  0.5251055626855007  0.4868184879488841  0.4019382579353278
  0.5212122308649734  0.9961531607000909  0.4520466304244579
  0.0147172396340070  0.4960521314041960  0.4516188157427458
  0.5294501609289286  0.5039862067597658  0.5019564433977283
  0.5172433172566985  0.0109690571307910  0.5516595278529703
  0.0114249168361136  0.5119166283729403  0.5523443798467503
  0.5174688580327488  0.5213539828895174  0.6019695037081216
  0.5059504832800560  0.0148461091220235  0.6514560630246238
  0.0048972425142101  0.5205882765138186  0.6522234330213728
  0.4979321771748239  0.5308342496317019  0.7019823263377569
  0.4899805975214209  0.0141882312198779  0.7521721058476080
  0.9899314910549200  0.5208137586609636  0.7518425151572535
  0.4824900488469835  0.5235766628437253  0.8020100594037466
  0.4823800519717404  0.0090852214085291  0.8522689115601959
  0.9866327931893850  0.5136097848094032  0.8516027320081166
  0.4748944373131986  0.5131815120510236  0.9019382279361069
  0.4787877691347850  0.0038468393002005  0.9520466594259845
  0.9852827603659504  0.5039478685961378  0.9516188447429933
 
  0.00000000E+00  0.00000000E+00  0.00000000E+00
  0.00000000E+00  0.00000000E+00  0.00000000E+00
  0.00000000E+00  0.00000000E+00  0.00000000E+00
  0.00000000E+00  0.00000000E+00  0.00000000E+00
  0.00000000E+00  0.00000000E+00  0.00000000E+00
  0.00000000E+00  0.00000000E+00  0.00000000E+00
  0.00000000E+00  0.00000000E+00  0.00000000E+00
  0.00000000E+00  0.00000000E+00  0.00000000E+00
  0.00000000E+00  0.00000000E+00  0.00000000E+00
  0.00000000E+00  0.00000000E+00  0.00000000E+00
  0.00000000E+00  0.00000000E+00  0.00000000E+00
  0.00000000E+00  0.00000000E+00  0.00000000E+00
  0.00000000E+00  0.00000000E+00  0.00000000E+00
  0.00000000E+00  0.00000000E+00  0.00000000E+00
  0.00000000E+00  0.00000000E+00  0.00000000E+00
  0.00000000E+00  0.00000000E+00  0.00000000E+00
  0.00000000E+00  0.00000000E+00  0.00000000E+00
  0.00000000E+00  0.00000000E+00  0.00000000E+00
  0.00000000E+00  0.00000000E+00  0.00000000E+00
  0.00000000E+00  0.00000000E+00  0.00000000E+00
  0.00000000E+00  0.00000000E+00  0.00000000E+00
  0.00000000E+00  0.00000000E+00  0.00000000E+00
  0.00000000E+00  0.00000000E+00  0.00000000E+00
  0.00000000E+00  0.00000000E+00  0.00000000E+00
  0.00000000E+00  0.00000000E+00  0.00000000E+00
  0.00000000E+00  0.00000000E+00  0.00000000E+00
  0.00000000E+00  0.00000000E+00  0.00000000E+00
  0.00000000E+00  0.00000000E+00  0.00000000E+00
  0.00000000E+00  0.00000000E+00  0.00000000E+00
  0.00000000E+00  0.00000000E+00  0.00000000E+00
  0.00000000E+00  0.00000000E+00  0.00000000E+00
  0.00000000E+00  0.00000000E+00  0.00000000E+00
  0.00000000E+00  0.00000000E+00  0.00000000E+00
  0.00000000E+00  0.00000000E+00  0.00000000E+00
  0.00000000E+00  0.00000000E+00  0.00000000E+00
  0.00000000E+00  0.00000000E+00  0.00000000E+00
  0.00000000E+00  0.00000000E+00  0.00000000E+00
  0.00000000E+00  0.00000000E+00  0.00000000E+00
  0.00000000E+00  0.00000000E+00  0.00000000E+00
  0.00000000E+00  0.00000000E+00  0.00000000E+00
  0.00000000E+00  0.00000000E+00  0.00000000E+00
  0.00000000E+00  0.00000000E+00  0.00000000E+00
  0.00000000E+00  0.00000000E+00  0.00000000E+00
  0.00000000E+00  0.00000000E+00  0.00000000E+00
  0.00000000E+00  0.00000000E+00  0.00000000E+00
  0.00000000E+00  0.00000000E+00  0.00000000E+00
  0.00000000E+00  0.00000000E+00  0.00000000E+00
  0.00000000E+00  0.00000000E+00  0.00000000E+00
  0.00000000E+00  0.00000000E+00  0.00000000E+00
  0.00000000E+00  0.00000000E+00  0.00000000E+00
