XCrySDen XSF file                       
    1.000000000000000     
     3.9380000000000002    0.0000000000000000    0.0000000000000000
     0.0000000000000000    3.9380000000000002    0.0000000000000000
     0.0000000000000000    0.0000000000000000    8.0978712475122627
   Pb   Ti   O 
     2     2     6
Direct
 -0.0009141557307035  0.0000000000000000  0.0391024649410149
  0.0009141557307038  0.0000000000000000  0.5391024649410150
  0.4990405508038290  0.5000000000000000  0.2688301406364325
  0.5009594491961710  0.5000000000000000  0.7688301406364328
  0.4997241069337593  0.5000000000000000 -0.0105666591452214
  0.4984865322582887  0.0000000000000000  0.2347936751545448
 -0.0003462640678351  0.5000000000000000  0.2347255314678880
  0.5002758930662404  0.5000000000000000  0.4894333408547784
  0.5015134677417113  0.0000000000000000  0.7347936751545446
  0.0003462640678351  0.5000000000000000  0.7347255314678879
 
  0.00000000E+00  0.00000000E+00  0.00000000E+00
  0.00000000E+00  0.00000000E+00  0.00000000E+00
  0.00000000E+00  0.00000000E+00  0.00000000E+00
  0.00000000E+00  0.00000000E+00  0.00000000E+00
  0.00000000E+00  0.00000000E+00  0.00000000E+00
  0.00000000E+00  0.00000000E+00  0.00000000E+00
  0.00000000E+00  0.00000000E+00  0.00000000E+00
  0.00000000E+00  0.00000000E+00  0.00000000E+00
  0.00000000E+00  0.00000000E+00  0.00000000E+00
  0.00000000E+00  0.00000000E+00  0.00000000E+00
