XCrySDen XSF file                       
    1.000000000000000     
     3.9359999999999999    0.0000000000000000    0.0000000000000000
     0.0000000000000000    3.9359999999999999    0.0000000000000000
     0.0000000000000000    0.0000000000000000    8.0987571274452712
   Pb   Ti   O 
     2     2     6
Direct
 -0.0010604482568096  0.0000000000000000  0.0386268636763983
  0.0010604482568096  0.0000000000000000  0.5386268636763983
  0.4994176089908287  0.5000000000000000  0.2688147391421087
  0.5005823910091710  0.5000000000000000  0.7688147391421085
  0.5003597501014689  0.5000000000000000 -0.0105107699840956
  0.4989971056181425  0.0000000000000000  0.2348003329698934
 -0.0006444939129033  0.5000000000000000  0.2347694927106167
  0.4996402498985311  0.5000000000000000  0.4894892300159044
  0.5010028943818579  0.0000000000000000  0.7348003329698934
  0.0006444939129033  0.5000000000000000  0.7347694927106172
 
  0.00000000E+00  0.00000000E+00  0.00000000E+00
  0.00000000E+00  0.00000000E+00  0.00000000E+00
  0.00000000E+00  0.00000000E+00  0.00000000E+00
  0.00000000E+00  0.00000000E+00  0.00000000E+00
  0.00000000E+00  0.00000000E+00  0.00000000E+00
  0.00000000E+00  0.00000000E+00  0.00000000E+00
  0.00000000E+00  0.00000000E+00  0.00000000E+00
  0.00000000E+00  0.00000000E+00  0.00000000E+00
  0.00000000E+00  0.00000000E+00  0.00000000E+00
  0.00000000E+00  0.00000000E+00  0.00000000E+00
