XCrySDen XSF file                       
    1.000000000000000     
     4.0480000000000000    0.0000000000000000    0.0000000000000000
     0.0000000000000000    4.0480000000000000    0.0000000000000000
     0.0000000000000000    0.0000000000000000   19.2398186970459619
   Pb   Ti   O 
     5     5    15
Direct
  0.0782929188465850  0.0065883614950221  0.0063776257010868
  0.0000392668429245  0.0792454994746251  0.2064479983741736
  0.9209336974680745  0.0024234705559094  0.4065199838168799
  0.9913395035584082  0.9225065436475601  0.6065335204696821
  0.0534191096244171  0.9439661399840069  0.8064637431436547
  0.5332071754029206  0.5353229575087516  0.1062495912426517
  0.4652057537588076  0.5360357534929560  0.3062884570140340
  0.4636572169087447  0.4681393713599646  0.5063434033423602
  0.5255399008615976  0.4620200950670543  0.7064119779709462
  0.5373998493784840  0.4729487887941859  0.9061435148818155
  0.4675120572562882  0.4994418352252856  0.0060045586323577
  0.4887253429402425  0.9899117028731920  0.1049775069891404
 -0.0126024970160455  0.4909115033833644  0.1071395191617038
  0.4986250814585229  0.4714176630326716  0.2061084378266708
  0.5086597278918451 -0.0093375208654066  0.3070385292808458
  0.0101522408354416  0.4922139918311200  0.3051142662304250
  0.5286794659892121  0.5023251046728961  0.4062010569932897
  0.5084800245553680  0.0134928116479946  0.5050685531377845
  0.0094741555221643  0.5122233248080190  0.5071907104614963
  0.5000101353855509  0.5326887770098985  0.6062899802784374
  0.4909254165773816  0.0155527262243318  0.7068226684181457
  0.9889204266382937  0.5184480359195981  0.7057471562784826
  0.4776363434852508  0.5225789287519863  0.8061520294263059
  0.4814639427820318  0.0104388352412042  0.9064789220923067
  0.9843037430475037  0.5084952988637802  0.9052748970996265
 
  0.00000000E+00  0.00000000E+00  0.00000000E+00
  0.00000000E+00  0.00000000E+00  0.00000000E+00
  0.00000000E+00  0.00000000E+00  0.00000000E+00
  0.00000000E+00  0.00000000E+00  0.00000000E+00
  0.00000000E+00  0.00000000E+00  0.00000000E+00
  0.00000000E+00  0.00000000E+00  0.00000000E+00
  0.00000000E+00  0.00000000E+00  0.00000000E+00
  0.00000000E+00  0.00000000E+00  0.00000000E+00
  0.00000000E+00  0.00000000E+00  0.00000000E+00
  0.00000000E+00  0.00000000E+00  0.00000000E+00
  0.00000000E+00  0.00000000E+00  0.00000000E+00
  0.00000000E+00  0.00000000E+00  0.00000000E+00
  0.00000000E+00  0.00000000E+00  0.00000000E+00
  0.00000000E+00  0.00000000E+00  0.00000000E+00
  0.00000000E+00  0.00000000E+00  0.00000000E+00
  0.00000000E+00  0.00000000E+00  0.00000000E+00
  0.00000000E+00  0.00000000E+00  0.00000000E+00
  0.00000000E+00  0.00000000E+00  0.00000000E+00
  0.00000000E+00  0.00000000E+00  0.00000000E+00
  0.00000000E+00  0.00000000E+00  0.00000000E+00
  0.00000000E+00  0.00000000E+00  0.00000000E+00
  0.00000000E+00  0.00000000E+00  0.00000000E+00
  0.00000000E+00  0.00000000E+00  0.00000000E+00
  0.00000000E+00  0.00000000E+00  0.00000000E+00
  0.00000000E+00  0.00000000E+00  0.00000000E+00
