XCrySDen XSF file                       
    1.000000000000000     
     3.9740000000000002    0.0000000000000000    0.0000000000000000
     0.0000000000000000    3.9740000000000002    0.0000000000000000
     0.0000000000000000    0.0000000000000000   38.9671656762797767
   Pb   Ti   O 
    10    10    30
Direct
  0.0690774946455116  0.9989296069713699  0.0022141997056145
  0.0508248911004451  0.0427801853063128  0.1022226571434248
  0.0077530610063906  0.0675295511045703  0.2022523264454245
  0.9691984367213788  0.0597422351887488  0.3022165738066185
  0.9458530334272442  0.0403408602472876  0.4022379854092666
  0.9309225203539815  0.0010703930285518  0.5022141837049596
  0.9491750788992965  0.9572198296937844  0.6022226641422282
  0.9922469619946310  0.9324704528967092  0.7022522964460048
  0.0308015862788681  0.9402577688122038  0.8022165738059862
  0.0541469365720283  0.9596591547526462  0.9022380144088462
  0.5339795184771909  0.5174767850937239  0.0521409756645082
  0.5250570464599654  0.5299544051620032  0.1520686192946472
  0.4879361860008627  0.5335586270577705  0.2521533665383569
  0.4745940223665063  0.5311453582859641  0.3521141011399387
  0.4676471347795266  0.5206570806315357  0.4520564620194160
  0.4660204815223897  0.4825232149047913  0.5521409716646929
  0.4749429825406585  0.4700455948376630  0.6520686342950570
  0.5120637839992701  0.4664413729421655  0.7521533665372410
  0.5254059476353455  0.4688546417137021  0.8521141011406567
  0.5323528942201808  0.4793429193670574  0.9520564320202238
  0.4751036979131317  0.4960819039555900  0.0019429616453205
  0.4833393198010127  0.9912833241920699  0.0516591715889938
  0.9916519987025071  0.4883543540478714  0.0522685671052417
  0.4850752865901853  0.4812191102118653  0.1019511796734646
  0.4940140172600713  0.9883429714552225  0.1515095607754973
  0.9970961406944729  0.4801474110467797  0.1521797448839172
  0.5018445085787477  0.4737793059509893  0.2019589414757598
  0.5095083327682055  0.9892003241520351  0.2521109780645467
  0.0078026277262267  0.4798168701122596  0.2518178687824265
  0.5151096284232333  0.4797520413308821  0.3019799634668643
  0.5167342315090813  0.9936779631397543  0.3522152227091663
  0.0104732213924056  0.4871593498184182  0.3516132051082285
  0.5219434512402339  0.4891773238437836  0.4019301644380685
  0.5205782105783996  0.9981783059574371  0.4520254993698555
  0.0113724460065416  0.4962222895162242  0.4516622277453208
  0.5248963020869603  0.5039180960426762  0.5019429616454698
  0.5166606801993213  0.0087166758078236  0.5516591605888971
  0.0083480012980756  0.5116456459534149  0.5522685561045835
  0.5149247134100563  0.5187808897874455  0.6019512026749622
  0.5059859827411013  0.0116570285452037  0.6515095747769833
  0.0029038593044825  0.5198525889519058  0.6521797588840816
  0.4981554914204493  0.5262206940488618  0.7019589264747744
  0.4904916672324554  0.0107996758481284  0.7521109490639509
  0.9921973722733897  0.5201831298857793  0.7518178397819730
  0.4848903715749405  0.5202479586698429  0.8019799634653439
  0.4832657684910895  0.0063220368596771  0.8522152227112697
  0.9895267786085394  0.5128406501827114  0.8516132051096780
  0.4780565487584658  0.5108226761561241  0.9019301344388475
  0.4794217894213591  0.0018216940428542  0.9520255283713820
  0.9886275539934158  0.5037777104841099  0.9516622567455683
 
  0.00000000E+00  0.00000000E+00  0.00000000E+00
  0.00000000E+00  0.00000000E+00  0.00000000E+00
  0.00000000E+00  0.00000000E+00  0.00000000E+00
  0.00000000E+00  0.00000000E+00  0.00000000E+00
  0.00000000E+00  0.00000000E+00  0.00000000E+00
  0.00000000E+00  0.00000000E+00  0.00000000E+00
  0.00000000E+00  0.00000000E+00  0.00000000E+00
  0.00000000E+00  0.00000000E+00  0.00000000E+00
  0.00000000E+00  0.00000000E+00  0.00000000E+00
  0.00000000E+00  0.00000000E+00  0.00000000E+00
  0.00000000E+00  0.00000000E+00  0.00000000E+00
  0.00000000E+00  0.00000000E+00  0.00000000E+00
  0.00000000E+00  0.00000000E+00  0.00000000E+00
  0.00000000E+00  0.00000000E+00  0.00000000E+00
  0.00000000E+00  0.00000000E+00  0.00000000E+00
  0.00000000E+00  0.00000000E+00  0.00000000E+00
  0.00000000E+00  0.00000000E+00  0.00000000E+00
  0.00000000E+00  0.00000000E+00  0.00000000E+00
  0.00000000E+00  0.00000000E+00  0.00000000E+00
  0.00000000E+00  0.00000000E+00  0.00000000E+00
  0.00000000E+00  0.00000000E+00  0.00000000E+00
  0.00000000E+00  0.00000000E+00  0.00000000E+00
  0.00000000E+00  0.00000000E+00  0.00000000E+00
  0.00000000E+00  0.00000000E+00  0.00000000E+00
  0.00000000E+00  0.00000000E+00  0.00000000E+00
  0.00000000E+00  0.00000000E+00  0.00000000E+00
  0.00000000E+00  0.00000000E+00  0.00000000E+00
  0.00000000E+00  0.00000000E+00  0.00000000E+00
  0.00000000E+00  0.00000000E+00  0.00000000E+00
  0.00000000E+00  0.00000000E+00  0.00000000E+00
  0.00000000E+00  0.00000000E+00  0.00000000E+00
  0.00000000E+00  0.00000000E+00  0.00000000E+00
  0.00000000E+00  0.00000000E+00  0.00000000E+00
  0.00000000E+00  0.00000000E+00  0.00000000E+00
  0.00000000E+00  0.00000000E+00  0.00000000E+00
  0.00000000E+00  0.00000000E+00  0.00000000E+00
  0.00000000E+00  0.00000000E+00  0.00000000E+00
  0.00000000E+00  0.00000000E+00  0.00000000E+00
  0.00000000E+00  0.00000000E+00  0.00000000E+00
  0.00000000E+00  0.00000000E+00  0.00000000E+00
  0.00000000E+00  0.00000000E+00  0.00000000E+00
  0.00000000E+00  0.00000000E+00  0.00000000E+00
  0.00000000E+00  0.00000000E+00  0.00000000E+00
  0.00000000E+00  0.00000000E+00  0.00000000E+00
  0.00000000E+00  0.00000000E+00  0.00000000E+00
  0.00000000E+00  0.00000000E+00  0.00000000E+00
  0.00000000E+00  0.00000000E+00  0.00000000E+00
  0.00000000E+00  0.00000000E+00  0.00000000E+00
  0.00000000E+00  0.00000000E+00  0.00000000E+00
  0.00000000E+00  0.00000000E+00  0.00000000E+00
