XCrySDen XSF file                       
    1.000000000000000     
     4.0000000000000000    0.0000000000000000    0.0000000000000000
     0.0000000000000000    4.0000000000000000    0.0000000000000000
     0.0000000000000000    0.0000000000000000   19.4032074007922404
   Pb   Ti   O 
     5     5    15
Direct
  0.0684026269536133  0.0060165042022788  0.0076380871650059
  0.0003951035055110  0.0675450595889089  0.2077333830402779
  0.9328209950990427  0.0020434528204447  0.4077319728026296
  0.9914752800239341  0.9333164863887475  0.6077137733298130
  0.0461844455503737  0.9503426450585124  0.8076329187547131
  0.5296810897663633  0.5275641129515165  0.1067056031733316
  0.4734036315975203  0.5313654876332023  0.3066906071228956
  0.4684883914524391  0.4758337459823565  0.5067047420540476
  0.5182766204608455  0.4670235114158103  0.7067792253860929
  0.5314902047401802  0.4764653074348999  0.9066293691303926
  0.4725563890665683  0.4964880776243561  0.0056968546273808
  0.4895521518726298  0.9898559364747257  0.1045431514847621
  0.9914870833458380  0.4866343712726504  0.1063867019179270
  0.5015602459859849  0.4751557860095019  0.2057868361373494
  0.5130709441297654  0.9937910783785640  0.3062569063842133
  0.0104318702946458  0.4919801127853844  0.3046358234151612
  0.5253967427162323  0.5045686238228839  0.4058380315694876
  0.5090544482742061  0.0133903504299866  0.5044815792215900
  0.0068076962466677  0.5161522102275669  0.5063495971922549
  0.4983630021797154  0.5299196086919125  0.6058732837362513
  0.4883944259525919  0.0130519820682338  0.7060569889826951
  0.9893178494487103  0.5192402791138591  0.7050784289213112
  0.4783720023445284  0.5185408841891359  0.8057773258799159
  0.4791637713294890  0.0063449752646321  0.9058410845728275
  0.9858529876626108  0.5073694101699147  0.9048263322619761
 
  0.00000000E+00  0.00000000E+00  0.00000000E+00
  0.00000000E+00  0.00000000E+00  0.00000000E+00
  0.00000000E+00  0.00000000E+00  0.00000000E+00
  0.00000000E+00  0.00000000E+00  0.00000000E+00
  0.00000000E+00  0.00000000E+00  0.00000000E+00
  0.00000000E+00  0.00000000E+00  0.00000000E+00
  0.00000000E+00  0.00000000E+00  0.00000000E+00
  0.00000000E+00  0.00000000E+00  0.00000000E+00
  0.00000000E+00  0.00000000E+00  0.00000000E+00
  0.00000000E+00  0.00000000E+00  0.00000000E+00
  0.00000000E+00  0.00000000E+00  0.00000000E+00
  0.00000000E+00  0.00000000E+00  0.00000000E+00
  0.00000000E+00  0.00000000E+00  0.00000000E+00
  0.00000000E+00  0.00000000E+00  0.00000000E+00
  0.00000000E+00  0.00000000E+00  0.00000000E+00
  0.00000000E+00  0.00000000E+00  0.00000000E+00
  0.00000000E+00  0.00000000E+00  0.00000000E+00
  0.00000000E+00  0.00000000E+00  0.00000000E+00
  0.00000000E+00  0.00000000E+00  0.00000000E+00
  0.00000000E+00  0.00000000E+00  0.00000000E+00
  0.00000000E+00  0.00000000E+00  0.00000000E+00
  0.00000000E+00  0.00000000E+00  0.00000000E+00
  0.00000000E+00  0.00000000E+00  0.00000000E+00
  0.00000000E+00  0.00000000E+00  0.00000000E+00
  0.00000000E+00  0.00000000E+00  0.00000000E+00
