XCrySDen XSF file                       
    1.000000000000000     
     3.9920000000000000    0.0000000000000000    0.0000000000000000
     0.0000000000000000    3.9920000000000000    0.0000000000000000
     0.0000000000000000    0.0000000000000000   19.4446757873947291
   Pb   Ti   O 
     5     5    15
Direct
  0.0657279137569717  0.0057664318039590  0.0092467574213282
  0.0013665037419580  0.0639924491091511  0.2094402713722729
  0.9370198428240045  0.0021874077046060  0.4094468961981903
  0.9896986205944349  0.9375320187810416  0.6093404318750956
  0.0443615138068468  0.9522562401083823  0.8092321107593708
  0.5306266425413406  0.5243216584063518  0.1073645953444548
  0.4767863337908861  0.5319211185886065  0.3073776603097063
  0.4683189425222724  0.4797894603844693  0.5073492528258087
  0.5149748116876863  0.4677696879377077  0.7074232580178036
  0.5299329051932847  0.4757853647217373  0.9072817400339094
  0.4749171286048516  0.4935994643851590  0.0051580463265590
  0.4920955551736223  0.9885922602763265  0.1037460013680402
 -0.0059428196522452  0.4844323739578594  0.1053963578661720
  0.5041383202475984  0.4766613703426777  0.2052761854070096
  0.5148231952307073 -0.0039077762318915  0.3052898753605404
  0.0116246007796767  0.4942433442424748  0.3038691310369833
  0.5240254344914955  0.5076344006549538  0.4053384982877999
  0.5075259480908776  0.0154032610017994  0.5037298982459368
  0.0049582612952018  0.5193042664776801  0.5053530717410218
  0.4963645157047943  0.5294801790423539  0.6053267434409167
  0.4861427340162072  0.0116703681672175  0.7051156144473105
  0.9875958437234363  0.5177051193727109  0.7041735067678668
  0.4774676821576944  0.5159158686370243  0.8052066215447141
  0.4791712942155217  0.0034846478119143  0.9048929270145952
  0.9862782754608876  0.5044590143157003  0.9040131552508961
 
  0.00000000E+00  0.00000000E+00  0.00000000E+00
  0.00000000E+00  0.00000000E+00  0.00000000E+00
  0.00000000E+00  0.00000000E+00  0.00000000E+00
  0.00000000E+00  0.00000000E+00  0.00000000E+00
  0.00000000E+00  0.00000000E+00  0.00000000E+00
  0.00000000E+00  0.00000000E+00  0.00000000E+00
  0.00000000E+00  0.00000000E+00  0.00000000E+00
  0.00000000E+00  0.00000000E+00  0.00000000E+00
  0.00000000E+00  0.00000000E+00  0.00000000E+00
  0.00000000E+00  0.00000000E+00  0.00000000E+00
  0.00000000E+00  0.00000000E+00  0.00000000E+00
  0.00000000E+00  0.00000000E+00  0.00000000E+00
  0.00000000E+00  0.00000000E+00  0.00000000E+00
  0.00000000E+00  0.00000000E+00  0.00000000E+00
  0.00000000E+00  0.00000000E+00  0.00000000E+00
  0.00000000E+00  0.00000000E+00  0.00000000E+00
  0.00000000E+00  0.00000000E+00  0.00000000E+00
  0.00000000E+00  0.00000000E+00  0.00000000E+00
  0.00000000E+00  0.00000000E+00  0.00000000E+00
  0.00000000E+00  0.00000000E+00  0.00000000E+00
  0.00000000E+00  0.00000000E+00  0.00000000E+00
  0.00000000E+00  0.00000000E+00  0.00000000E+00
  0.00000000E+00  0.00000000E+00  0.00000000E+00
  0.00000000E+00  0.00000000E+00  0.00000000E+00
  0.00000000E+00  0.00000000E+00  0.00000000E+00
