XCrySDen XSF file                       
    1.000000000000000     
     3.9239999999999999    0.0000000000000000    0.0000000000000000
     0.0000000000000000    3.9239999999999999    0.0000000000000000
     0.0000000000000000    0.0000000000000000   40.6627917806698846
   Pb   Ti   O 
    10    10    30
Direct
  0.0035203375868386 -0.0017035934463262  0.0090865095719707
  0.0056069760832507  0.0009356132161306  0.1091155562163867
  0.0065810800422343  0.0040489167706208  0.2091143896464555
  0.0041764521620926  0.0059988637854782  0.3091173574326863
  0.0002415330217012  0.0056651183545141  0.4091181695927348
  0.9964796774128107  0.0017035934468307  0.5090864935717350
  0.9943929939167677  0.9990644017836401  0.6091155632155525
  0.9934189429587306  0.9959510872305944  0.7091143596473984
 -0.0041764291616394 -0.0059988597847744  0.8091173574325439
 -0.0002415630227620 -0.0056651033544808  0.9091181985916750
  0.5035932417972625  0.4979703377167223  0.0552350029945885
  0.5054269583198360  0.5007749204930875  0.1552574871192426
  0.5060234992488154  0.5040791317660095  0.2552645847433135
  0.5035491900633738  0.5055332619609014  0.3552435423251512
  0.4998946474654618  0.5049277567409706  0.4552401067479531
  0.4964067582021692  0.5020296622818140  0.5552349989952350
  0.4945730706802765  0.4992250795070686  0.6552575021197802
  0.4939764707513242  0.4959208682338843  0.7552645847422688
  0.4964507799382723  0.4944667380388857  0.8552435423255570
  0.5001053815342035  0.4950722432575726  0.9552400767489883
  0.4993581273514352  0.4939719911125133 -0.0008230905055080
  0.5009811214173006  0.9957111995382257  0.0482480085628609
  0.0014834344615801  0.4951585435159299  0.0482668483398066
  0.5026421192431760  0.4966299161710333  0.0991821375875926
  0.5033886162036736  0.9982998526949403  0.1482859662291054
  0.0038485152486052  0.4976679295408609  0.1482881504647434
  0.5048675332116168  0.4996518368647828  0.1991968470960947
  0.5057390904593528  0.0017914821609824  0.2482921242175635
  0.0056038544186848  0.5010835902566303  0.2482725885911111
  0.5054478462877668  0.5032968616908728  0.2992043698806438
  0.5051941315005188  0.0048243196680078  0.3482765765102920
  0.0048017454732654  0.5047059915401176  0.3482687857802003
  0.5039394584995200  0.5057885870978309  0.3991901395723899
  0.5027069779723657  0.0062414428002197  0.4482830279332317
  0.0020798190944973  0.5068367399999892  0.4482773373490997
  0.5006418726482662  0.5060280088859168  0.4991769094950250
  0.4990188785826285  0.0042888004619805  0.5482479975629553
 -0.0014834344610329  0.5048414564857538  0.5482668373395533
  0.4973578807563335  0.5033700838279505  0.5991821605890193
  0.4966113837980885  0.0017001473056497  0.6482859802307334
 -0.0038485152496356  0.5023320704580093  0.6482881644644248
  0.4951324667872459  0.5003481631344144  0.6991968320952305
  0.4942609095407539 -0.0017914821608903  0.7482920952168823
  0.9943961455813296  0.4989164097410247  0.7482725595904655
  0.4945521537102289  0.4967031383094896  0.7992043698787040
  0.4948058684996083 -0.0048243196684909  0.8482765765121461
  0.9951982545278503  0.4952940084617936  0.8482687857816359
  0.4960605414991873  0.4942114129022472  0.8991901095734175
  0.4972930220271655 -0.0062414427995234  0.9482830569349854
  0.9979201809057442  0.4931632600000180  0.9482773663490847
 
  0.00000000E+00  0.00000000E+00  0.00000000E+00
  0.00000000E+00  0.00000000E+00  0.00000000E+00
  0.00000000E+00  0.00000000E+00  0.00000000E+00
  0.00000000E+00  0.00000000E+00  0.00000000E+00
  0.00000000E+00  0.00000000E+00  0.00000000E+00
  0.00000000E+00  0.00000000E+00  0.00000000E+00
  0.00000000E+00  0.00000000E+00  0.00000000E+00
  0.00000000E+00  0.00000000E+00  0.00000000E+00
  0.00000000E+00  0.00000000E+00  0.00000000E+00
  0.00000000E+00  0.00000000E+00  0.00000000E+00
  0.00000000E+00  0.00000000E+00  0.00000000E+00
  0.00000000E+00  0.00000000E+00  0.00000000E+00
  0.00000000E+00  0.00000000E+00  0.00000000E+00
  0.00000000E+00  0.00000000E+00  0.00000000E+00
  0.00000000E+00  0.00000000E+00  0.00000000E+00
  0.00000000E+00  0.00000000E+00  0.00000000E+00
  0.00000000E+00  0.00000000E+00  0.00000000E+00
  0.00000000E+00  0.00000000E+00  0.00000000E+00
  0.00000000E+00  0.00000000E+00  0.00000000E+00
  0.00000000E+00  0.00000000E+00  0.00000000E+00
  0.00000000E+00  0.00000000E+00  0.00000000E+00
  0.00000000E+00  0.00000000E+00  0.00000000E+00
  0.00000000E+00  0.00000000E+00  0.00000000E+00
  0.00000000E+00  0.00000000E+00  0.00000000E+00
  0.00000000E+00  0.00000000E+00  0.00000000E+00
  0.00000000E+00  0.00000000E+00  0.00000000E+00
  0.00000000E+00  0.00000000E+00  0.00000000E+00
  0.00000000E+00  0.00000000E+00  0.00000000E+00
  0.00000000E+00  0.00000000E+00  0.00000000E+00
  0.00000000E+00  0.00000000E+00  0.00000000E+00
  0.00000000E+00  0.00000000E+00  0.00000000E+00
  0.00000000E+00  0.00000000E+00  0.00000000E+00
  0.00000000E+00  0.00000000E+00  0.00000000E+00
  0.00000000E+00  0.00000000E+00  0.00000000E+00
  0.00000000E+00  0.00000000E+00  0.00000000E+00
  0.00000000E+00  0.00000000E+00  0.00000000E+00
  0.00000000E+00  0.00000000E+00  0.00000000E+00
  0.00000000E+00  0.00000000E+00  0.00000000E+00
  0.00000000E+00  0.00000000E+00  0.00000000E+00
  0.00000000E+00  0.00000000E+00  0.00000000E+00
  0.00000000E+00  0.00000000E+00  0.00000000E+00
  0.00000000E+00  0.00000000E+00  0.00000000E+00
  0.00000000E+00  0.00000000E+00  0.00000000E+00
  0.00000000E+00  0.00000000E+00  0.00000000E+00
  0.00000000E+00  0.00000000E+00  0.00000000E+00
  0.00000000E+00  0.00000000E+00  0.00000000E+00
  0.00000000E+00  0.00000000E+00  0.00000000E+00
  0.00000000E+00  0.00000000E+00  0.00000000E+00
  0.00000000E+00  0.00000000E+00  0.00000000E+00
  0.00000000E+00  0.00000000E+00  0.00000000E+00
