XCrySDen XSF file                       
    1.000000000000000     
     3.9340000000000002    0.0000000000000000    0.0000000000000000
     0.0000000000000000    3.9340000000000002    0.0000000000000000
     0.0000000000000000    0.0000000000000000   36.3996296917103024
   Pb   Ti   O 
     9     9    27
Direct
  0.0134715116679452  0.9958320363515677  0.0098935940098263
  0.0130274006842563  0.0055219719460105  0.1210063238198783
  0.0064041841961787  0.0125453452567182  0.2321189287306416
  0.9967622130975152  0.0137606550722215  0.3432298772008068
  0.9887847592661746  0.0084487842748332  0.4543397932971499
  0.9859055258794619  0.9992100915901642  0.5654496248393442
  0.9896849900354509  0.9904822729071259  0.6765608170827284
  0.9982628811889367  0.9860085681493819  0.7876719075939240
  0.0076095125321819  0.9881476228679621  0.8987847172758647
  0.5108476113271978  0.4968517103349318  0.0611955930258830
  0.5103626968599878  0.5044717285456813  0.1723102262134084
  0.5049264012306590  0.5101206407999518  0.2834219019681259
  0.4973445153932662  0.5109876571520794  0.3945317039708151
  0.4909777759272085  0.5065692004565262  0.5056409225083432
  0.4886947708393006  0.4993023258266323  0.6167509426236015
  0.4919028585033853  0.4923170090974575  0.7278624995613604
  0.4987563061480764  0.4887498097870072  0.8389758861087105
  0.5061590482396013  0.4906274555160790  0.9500855970879051
  0.4997415734702883  0.4896399911214435  0.9992609090612847
  0.5023322526257603  0.9910308153714665  0.0537584940226414
  0.0039755462312679  0.4894898779331653  0.0537738323203442
  0.5064771061187199  0.4919007479302747  0.1103714307956097
  0.5084654813161935  0.9957366088482279  0.1648678692892787
  0.0087633261148376  0.4935010461634202  0.1648920934887979
  0.5101812107756319  0.4979778434776354  0.2214846426008881
  0.5107497998637505  0.0024068875432212  0.2759958168145691
  0.0095165230049338  0.5005318160033684  0.2759888112682358
  0.5090896835650250  0.5049920068818822  0.3325951201105292
  0.5078747169975257  0.0078879654247007  0.3871157488309243
  0.0057172841487623  0.5072161742672342  0.3870889952832468
  0.5037644527425437  0.5096691788179275  0.4437056484382093
  0.5013574141688484  0.0097568507422925  0.4982135382716999
 -0.0007026422921964  0.5106352108726684  0.4982104769647759
  0.4967030826340383  0.5097905996765585  0.5548174203103027
  0.4942901408336378  0.0070099967443747  0.6093101764903888
  0.9932540329371669  0.5090142062281950  0.6093355113097525
  0.4911555708198710  0.5053671813657560  0.6659274229984256
  0.4898122559552435  0.0010055268889982  0.7204276507275336
  0.9902965070556771  0.5031846620781141  0.7204394703661603
  0.4897749256637577  0.4984573825060357  0.7770381497913278
  0.4900818506887267  0.9945533089279618  0.8315560833019503
  0.9918805218684369  0.4959080431413571  0.8315342647434010
  0.4931609001398901  0.4922234751947041  0.8881501268559305
  0.4950812096028015  0.9906241857435727  0.9426666487320128
  0.9973203669325388  0.4905335751722807  0.9426478758949477
 
  0.00000000E+00  0.00000000E+00  0.00000000E+00
  0.00000000E+00  0.00000000E+00  0.00000000E+00
  0.00000000E+00  0.00000000E+00  0.00000000E+00
  0.00000000E+00  0.00000000E+00  0.00000000E+00
  0.00000000E+00  0.00000000E+00  0.00000000E+00
  0.00000000E+00  0.00000000E+00  0.00000000E+00
  0.00000000E+00  0.00000000E+00  0.00000000E+00
  0.00000000E+00  0.00000000E+00  0.00000000E+00
  0.00000000E+00  0.00000000E+00  0.00000000E+00
  0.00000000E+00  0.00000000E+00  0.00000000E+00
  0.00000000E+00  0.00000000E+00  0.00000000E+00
  0.00000000E+00  0.00000000E+00  0.00000000E+00
  0.00000000E+00  0.00000000E+00  0.00000000E+00
  0.00000000E+00  0.00000000E+00  0.00000000E+00
  0.00000000E+00  0.00000000E+00  0.00000000E+00
  0.00000000E+00  0.00000000E+00  0.00000000E+00
  0.00000000E+00  0.00000000E+00  0.00000000E+00
  0.00000000E+00  0.00000000E+00  0.00000000E+00
  0.00000000E+00  0.00000000E+00  0.00000000E+00
  0.00000000E+00  0.00000000E+00  0.00000000E+00
  0.00000000E+00  0.00000000E+00  0.00000000E+00
  0.00000000E+00  0.00000000E+00  0.00000000E+00
  0.00000000E+00  0.00000000E+00  0.00000000E+00
  0.00000000E+00  0.00000000E+00  0.00000000E+00
  0.00000000E+00  0.00000000E+00  0.00000000E+00
  0.00000000E+00  0.00000000E+00  0.00000000E+00
  0.00000000E+00  0.00000000E+00  0.00000000E+00
  0.00000000E+00  0.00000000E+00  0.00000000E+00
  0.00000000E+00  0.00000000E+00  0.00000000E+00
  0.00000000E+00  0.00000000E+00  0.00000000E+00
  0.00000000E+00  0.00000000E+00  0.00000000E+00
  0.00000000E+00  0.00000000E+00  0.00000000E+00
  0.00000000E+00  0.00000000E+00  0.00000000E+00
  0.00000000E+00  0.00000000E+00  0.00000000E+00
  0.00000000E+00  0.00000000E+00  0.00000000E+00
  0.00000000E+00  0.00000000E+00  0.00000000E+00
  0.00000000E+00  0.00000000E+00  0.00000000E+00
  0.00000000E+00  0.00000000E+00  0.00000000E+00
  0.00000000E+00  0.00000000E+00  0.00000000E+00
  0.00000000E+00  0.00000000E+00  0.00000000E+00
  0.00000000E+00  0.00000000E+00  0.00000000E+00
  0.00000000E+00  0.00000000E+00  0.00000000E+00
  0.00000000E+00  0.00000000E+00  0.00000000E+00
  0.00000000E+00  0.00000000E+00  0.00000000E+00
  0.00000000E+00  0.00000000E+00  0.00000000E+00
