XCrySDen XSF file                       
    1.000000000000000     
     3.9720000000000000    0.0000000000000000    0.0000000000000000
     0.0000000000000000    3.9720000000000000    0.0000000000000000
     0.0000000000000000    0.0000000000000000   35.0819401052789246
   Pb   Ti   O 
     9     9    27
Direct
  0.0579438811455114  0.0329202183358259  0.0023551056214526
  0.0378078203358188  0.0549935331451197  0.1134786168962434
  0.9984625039436974  0.0682290203502864  0.2245542510993631
  0.9545277374912734  0.0482971320961869  0.3356724965582953
  0.9307929757191589  0.0016571378570543  0.4467996819071631
  0.9500235902908402  0.9551900067329712  0.5579093388714544
  0.9969335582121859  0.9309597081853248  0.6690392525936585
  0.0429745428168954  0.9498281716652047  0.7801511791418423
  0.0672924990150525  0.9938672283024383  0.8912888731077485
  0.5293305255854356  0.5266379077059102  0.0578592269911601
  0.5179435816165602  0.5324504412726226  0.1689042053877036
  0.4799148737244574  0.5325480886764707  0.2801030670119825
  0.4676837540506917  0.5217863026353925  0.3911281657589326
  0.4661907912743752  0.4807077840202598  0.5023328910893632
  0.4767539705824191  0.4678707524973425  0.6133620980553987
  0.5176890309061988  0.4663403585111098  0.7245686184601046
  0.5303678880349633  0.4762776315899672  0.8356002566379249
  0.5329425647059733  0.5138099735966776  0.9467994522140228
  0.4793124715486817  0.4861213796658576  0.0022416233047255
  0.4858876493196079  0.9907746957876078  0.0574153006279321
  0.9924638226889263  0.4843882789286619  0.0580714955677799
  0.4876302063902933  0.4788580065877369  0.1132865833582982
  0.4939554597469948  0.9889570109130098  0.1685752359357388
  0.9960326807181165  0.4796653147202808  0.1689703843706568
  0.5014050765129876  0.4748748238724872  0.2244068276227675
  0.5089754929243114  0.9906303392447815  0.2803479643756389
  0.0059671742789938  0.4822239040165990  0.2796730350213773
  0.5161226468093779  0.4836541448608495  0.3355190324478953
  0.5174320233535931  0.9950009904612195  0.3913316880790409
  0.0091059681932341  0.4920419441039917  0.3906340416162380
  0.5238488284947372  0.5003284195296958  0.4466392617771009
  0.5167173190290066  0.0058716788669739  0.5019322601199427
  0.0082056895936596  0.5085934712547644  0.5025606165138152
  0.5151868701140737  0.5160021577843632  0.5577598603155539
  0.5066152350438663  0.0092053691343951  0.6128668032015471
  0.0036374740188475  0.5174955190513645  0.6135753391430566
  0.4981859328578653  0.5239967269900414  0.6688821521249384
  0.4898447644605593  0.0084074500395615  0.7247953230829338
  0.9925663983771279  0.5169455815522757  0.7241749235171869
  0.4824360526206266  0.5154987697978580  0.7800021345222576
  0.4809272084628566  0.0039248069274146  0.8358346112271182
  0.9891341807542215  0.5071842460472878  0.8350886344915363
  0.4741717357519261  0.4994228899154116  0.8911153798294601
  0.4796143293099093  0.9936919738077187  0.9465304137557827
  0.9890412761771323  0.4918687599618819  0.9468673826475364
 
  0.00000000E+00  0.00000000E+00  0.00000000E+00
  0.00000000E+00  0.00000000E+00  0.00000000E+00
  0.00000000E+00  0.00000000E+00  0.00000000E+00
  0.00000000E+00  0.00000000E+00  0.00000000E+00
  0.00000000E+00  0.00000000E+00  0.00000000E+00
  0.00000000E+00  0.00000000E+00  0.00000000E+00
  0.00000000E+00  0.00000000E+00  0.00000000E+00
  0.00000000E+00  0.00000000E+00  0.00000000E+00
  0.00000000E+00  0.00000000E+00  0.00000000E+00
  0.00000000E+00  0.00000000E+00  0.00000000E+00
  0.00000000E+00  0.00000000E+00  0.00000000E+00
  0.00000000E+00  0.00000000E+00  0.00000000E+00
  0.00000000E+00  0.00000000E+00  0.00000000E+00
  0.00000000E+00  0.00000000E+00  0.00000000E+00
  0.00000000E+00  0.00000000E+00  0.00000000E+00
  0.00000000E+00  0.00000000E+00  0.00000000E+00
  0.00000000E+00  0.00000000E+00  0.00000000E+00
  0.00000000E+00  0.00000000E+00  0.00000000E+00
  0.00000000E+00  0.00000000E+00  0.00000000E+00
  0.00000000E+00  0.00000000E+00  0.00000000E+00
  0.00000000E+00  0.00000000E+00  0.00000000E+00
  0.00000000E+00  0.00000000E+00  0.00000000E+00
  0.00000000E+00  0.00000000E+00  0.00000000E+00
  0.00000000E+00  0.00000000E+00  0.00000000E+00
  0.00000000E+00  0.00000000E+00  0.00000000E+00
  0.00000000E+00  0.00000000E+00  0.00000000E+00
  0.00000000E+00  0.00000000E+00  0.00000000E+00
  0.00000000E+00  0.00000000E+00  0.00000000E+00
  0.00000000E+00  0.00000000E+00  0.00000000E+00
  0.00000000E+00  0.00000000E+00  0.00000000E+00
  0.00000000E+00  0.00000000E+00  0.00000000E+00
  0.00000000E+00  0.00000000E+00  0.00000000E+00
  0.00000000E+00  0.00000000E+00  0.00000000E+00
  0.00000000E+00  0.00000000E+00  0.00000000E+00
  0.00000000E+00  0.00000000E+00  0.00000000E+00
  0.00000000E+00  0.00000000E+00  0.00000000E+00
  0.00000000E+00  0.00000000E+00  0.00000000E+00
  0.00000000E+00  0.00000000E+00  0.00000000E+00
  0.00000000E+00  0.00000000E+00  0.00000000E+00
  0.00000000E+00  0.00000000E+00  0.00000000E+00
  0.00000000E+00  0.00000000E+00  0.00000000E+00
  0.00000000E+00  0.00000000E+00  0.00000000E+00
  0.00000000E+00  0.00000000E+00  0.00000000E+00
  0.00000000E+00  0.00000000E+00  0.00000000E+00
  0.00000000E+00  0.00000000E+00  0.00000000E+00
